SLAB
PRIMVEC
 5.68600000000000 0.00000000000000 0.00000000000000
 0.00000000000000 5.68600000000000 0.00000000000000
 0.00000000000000 0.00000000000000 41.42150000000000
PRIMCOORD
 16 1
 27     0.00000000000000     0.00000000000000    12.30000000000000
 27     0.00000000000000     2.84300000000000    12.30000000000000
 27     2.84300000000000     0.00000000000000    12.30000000000000
 27     2.84300000000000     2.84300000000000    12.30000000000000
  8     1.42150000000000     1.42150000000000    10.00000000000000
 12     0.00000000000000     0.00000000000000    10.00000000000000
  8     1.42150000000000     4.26450000000000    10.00000000000000
 12     0.00000000000000     2.84300000000000    10.00000000000000
  8     4.26450000000000     1.42150000000000    10.00000000000000
 12     2.84300000000000     0.00000000000000    10.00000000000000
  8     4.26450000000000     4.26450000000000    10.00000000000000
 12     2.84300000000000     2.84300000000000    10.00000000000000
 26     1.30733024042985     1.55236571339005    13.13568632975490
 26     1.42179336673521     4.22412774764829    12.99881639593811
 26     4.26093979783641     1.23091260221933    12.82877305099131
 26     4.03651864435539     4.20433106180764    13.05071684492747
