SLAB
PRIMVEC
 14.89166881178869 0.00000000000000 0.00000000000000
 0.00000000000000 14.89166881178869 0.00000000000000
 0.00000000000000 0.00000000000000 43.78916688117886
PRIMCOORD
 75 1
 27     1.48916688117887     1.48916688117887    10.00000000000000
 26     1.48916688117887     4.46750064353661    10.00000000000000
 27     1.48916688117887     7.44583440589435    10.00000000000000
 27     1.48916688117887    10.42416816825208    10.00000000000000
 27     1.48916688117887    13.40250193060982    10.00000000000000
 27     4.46750064353661     1.48916688117887    10.00000000000000
 26     4.46750064353661     4.46750064353661    10.00000000000000
 27     4.46750064353661     7.44583440589435    10.00000000000000
 26     4.46750064353661    10.42416816825208    10.00000000000000
 27     4.46750064353661    13.40250193060982    10.00000000000000
 27     7.44583440589435     1.48916688117887    10.00000000000000
 27     7.44583440589435     4.46750064353661    10.00000000000000
 27     7.44583440589435     7.44583440589435    10.00000000000000
 27     7.44583440589435    10.42416816825208    10.00000000000000
 27     7.44583440589435    13.40250193060982    10.00000000000000
 27    10.42416816825208     1.48916688117887    10.00000000000000
 26    10.42416816825208     4.46750064353661    10.00000000000000
 26    10.42416816825208     7.44583440589435    10.00000000000000
 27    10.42416816825208    10.42416816825208    10.00000000000000
 27    10.42416816825208    13.40250193060982    10.00000000000000
 27    13.40250193060982     1.48916688117887    10.00000000000000
 27    13.40250193060982     4.46750064353661    10.00000000000000
 27    13.40250193060982     7.44583440589435    10.00000000000000
 27    13.40250193060982    10.42416816825208    10.00000000000000
 27    13.40250193060982    13.40250193060982    10.00000000000000
  8     2.11511306522596     0.71139200491257    11.47140058751577
 12     0.62945185203436     0.18470980777630    11.31382566772504
  8     1.59326603802329     4.50827801104274    11.92355578089282
 12     0.10930494858907     3.61680814593842    11.77891288167135
  8     2.34861546385996     8.48850876139636    10.78228915402233
 12     0.02950138536240     5.81407424257124    11.91776951885821
  8     2.67485372452756    10.46713213336517    10.96605344385261
 12     0.97110016232980     9.08843929844642    11.54059151489442
  8     0.40572834107935    12.57885152369430    10.73874865164741
 12     0.01695195450244    11.03325299539009    11.58926350638995
  8     5.01316946874865     1.60559114254081    11.43602622523330
 12     3.81377973064750     0.46189098833903    11.59474154897941
  8     3.60670487042992     4.29155850252545    11.31603436353011
 12     3.29357193605694     2.58021643700278    11.68582908280664
  8     4.76723564837522     7.47655234445537    11.45996888865782
 12     2.57315485227484     5.69780016334781    11.62186594534877
  8     4.48094331693115    10.42721754500812    11.62742525328764
 12     3.79677024963316     8.96617289201365    11.66293460096903
  8     5.48398920078854    13.51936448493285    11.38683592643070
 12     3.34940757999541    11.86853802320805    11.37217695153064
  8     7.83175900702588     2.06629272484572    11.77362029991136
 12     5.89016746380242     0.03634339104303    11.98432178469344
  8     7.39535085160642     4.64095933538392    11.93958204297630
 12     5.58175084949993     3.10844265236630    11.21241090916013
  8     7.31512705761635     7.30890523354958    11.61756472342842
 12     5.60290899619464     6.04396092079179    11.90871377004079
  8     7.59020093958270    10.59382251304104    11.85048369001963
 12     5.96580740961951     8.95576389350843    11.60047800635747
  8     7.55263858895692    13.80597946282274    11.51373361367961
 12     5.98149478362485    11.51078770966733    11.47422799306647
  8    10.85936398267112     1.43092298116270    11.91013354922182
 12     8.55866029985808     0.10078427786122    11.56638020763317
  8    10.35117462482928     4.50420824099542    11.51439313238202
 12     9.09405702283383     3.03631802177572    11.76789083564280
  8    10.12708355933150     7.31285579477513    11.71872888241808
 12     9.04030809025855     6.07545871680457    11.73008813695899
  8    10.36468979578809    11.73687313438995    10.79680572418468
 12     9.03928377395494     8.88391252843411    11.24321491870011
  8    10.02486169574861    13.68474630212485    11.72397401689051
 12     8.76641195160666    12.28717502144030    11.89521558506402
  8    13.82887449417800     1.32649511992577    11.53428777197678
 12    11.85357512028613     0.01672762170072    11.64057649925607
  8    13.42352374362020     4.19537749317777    11.88730525849178
 12    11.67768139375926     2.97044803742235    11.65855311267590
  8    12.91536278467936     7.78195544578287    11.59981435121741
 12    11.65125171844248     5.76974434092619    11.16111284494970
  8    13.43051408426678    10.24927588539588    11.78768939193915
 12    11.63221807048163     8.97947344676523    11.09870213010057
  8    13.47732997029775    13.15923919022533    11.96294890205628
 12    11.37407028404710    12.41968817318492    11.78689720881194
