SLAB
PRIMVEC
 5.68600000000000 0.00000000000000 0.00000000000000
 0.00000000000000 5.68600000000000 0.00000000000000
 0.00000000000000 0.00000000000000 43.72150000000000
PRIMCOORD
 8 1
  8     1.42150000000000     1.42150000000000    23.72150000000001
 12     0.00000000000000     0.00000000000000    23.72150000000001
  8     1.42150000000000     4.26450000000000    23.72150000000001
 12     0.00000000000000     2.84300000000000    23.72150000000001
  8     4.26450000000000     1.42150000000000    23.72150000000001
 12     2.84300000000000     0.00000000000000    23.72150000000001
  8     4.26450000000000     4.26450000000000    23.72150000000001
 12     2.84300000000000     2.84300000000000    23.72150000000001
