SLAB
PRIMVEC
 14.89166881178869 0.00000000000000 0.00000000000000
 0.00000000000000 14.89166881178869 0.00000000000000
 0.00000000000000 0.00000000000000 41.48916688117887
PRIMCOORD
 75 1
  8     1.48916688117887     1.48916688117887    10.00000000000000
 12     0.00000000000000     0.00000000000000    10.00000000000000
  8     1.48916688117887     4.46750064353661    10.00000000000000
 12     0.00000000000000     2.97833376235774    10.00000000000000
  8     1.48916688117887     7.44583440589435    10.00000000000000
 12     0.00000000000000     5.95666752471548    10.00000000000000
  8     1.48916688117887    10.42416816825208    10.00000000000000
 12     0.00000000000000     8.93500128707321    10.00000000000000
  8     1.48916688117887    13.40250193060982    10.00000000000000
 12     0.00000000000000    11.91333504943095    10.00000000000000
  8     4.46750064353661     1.48916688117887    10.00000000000000
 12     2.97833376235774     0.00000000000000    10.00000000000000
  8     4.46750064353661     4.46750064353661    10.00000000000000
 12     2.97833376235774     2.97833376235774    10.00000000000000
  8     4.46750064353661     7.44583440589435    10.00000000000000
 12     2.97833376235774     5.95666752471548    10.00000000000000
  8     4.46750064353661    10.42416816825208    10.00000000000000
 12     2.97833376235774     8.93500128707321    10.00000000000000
  8     4.46750064353661    13.40250193060982    10.00000000000000
 12     2.97833376235774    11.91333504943095    10.00000000000000
  8     7.44583440589435     1.48916688117887    10.00000000000000
 12     5.95666752471548     0.00000000000000    10.00000000000000
  8     7.44583440589435     4.46750064353661    10.00000000000000
 12     5.95666752471548     2.97833376235774    10.00000000000000
  8     7.44583440589435     7.44583440589435    10.00000000000000
 12     5.95666752471548     5.95666752471548    10.00000000000000
  8     7.44583440589435    10.42416816825208    10.00000000000000
 12     5.95666752471548     8.93500128707321    10.00000000000000
  8     7.44583440589435    13.40250193060982    10.00000000000000
 12     5.95666752471548    11.91333504943095    10.00000000000000
  8    10.42416816825208     1.48916688117887    10.00000000000000
 12     8.93500128707321     0.00000000000000    10.00000000000000
  8    10.42416816825208     4.46750064353661    10.00000000000000
 12     8.93500128707321     2.97833376235774    10.00000000000000
  8    10.42416816825208     7.44583440589435    10.00000000000000
 12     8.93500128707321     5.95666752471548    10.00000000000000
  8    10.42416816825208    10.42416816825208    10.00000000000000
 12     8.93500128707321     8.93500128707321    10.00000000000000
  8    10.42416816825208    13.40250193060982    10.00000000000000
 12     8.93500128707321    11.91333504943095    10.00000000000000
  8    13.40250193060982     1.48916688117887    10.00000000000000
 12    11.91333504943095     0.00000000000000    10.00000000000000
  8    13.40250193060982     4.46750064353661    10.00000000000000
 12    11.91333504943095     2.97833376235774    10.00000000000000
  8    13.40250193060982     7.44583440589435    10.00000000000000
 12    11.91333504943095     5.95666752471548    10.00000000000000
  8    13.40250193060982    10.42416816825208    10.00000000000000
 12    11.91333504943095     8.93500128707321    10.00000000000000
  8    13.40250193060982    13.40250193060982    10.00000000000000
 12    11.91333504943095    11.91333504943095    10.00000000000000
 27     3.15410451340547     2.72625347801980    13.37507005018670
 27     1.78803758849295     4.23448743535604    11.88452829592668
 26     1.52769193975389     7.38034101368957    11.82105562441183
 26     1.53038036979920    10.46807186802832    11.48848807335333
 26     1.92088399095224    13.10272653590113    11.64033139537850
 27     4.45580147990352     1.48332761644630    11.94998557636862
 26     5.15079638775793     4.45600582341149    11.63639922132972
 27     5.38238673034744     7.95179916105968    12.83972697665896
 26     3.37612489298127     9.30791934391764    12.95228985861166
 26     3.61737590196411    11.88793575405168    12.68702140474735
 27     8.73258242607198     1.33084698840130    12.84561821406271
 26     7.61981104507141     4.69697341823467    11.46468144689597
 27     8.41953942763044     7.64714333207443    13.14151133990678
 26     7.19568532650533    11.35357509513554    13.11731888250163
 26     7.39896927092908    13.36885107317748    11.68135617205542
 26    11.13174853883794     2.28436377839309    12.85132836430636
 27    10.46535665355543     4.86742567609175    11.71181810085471
 26    10.10691977811657     8.80317611040897    13.19773410068381
 26    10.44275800934823    10.34172262068400    11.70275061416550
 26    11.46321383928257    14.03231914590017    12.34614122315035
 26    13.34301733233673     2.46412700199168    11.43432284627023
 26    14.53047290905461     3.55857294595563    12.93571248735665
 26    13.18163948713637     7.80612463404819    11.61342650442865
 26    14.38263751239452    10.51030792061033    11.58566979512871
 26    13.40242728289934    13.40210623216553    11.62066950651415
