SLAB
PRIMVEC
 5.68600000000000 0.00000000000000 0.00000000000000
 0.00000000000000 5.68600000000000 0.00000000000000
 0.00000000000000 0.00000000000000 41.42150000000000
PRIMCOORD
 16 1
 27     0.00000000000000     0.00000000000000    12.30000000000000
 27     0.00000000000000     2.84300000000000    12.30000000000000
 27     2.84300000000000     0.00000000000000    12.30000000000000
 27     2.84300000000000     2.84300000000000    12.30000000000000
  8     1.42150000000000     1.42150000000000    10.00000000000000
 12     0.00000000000000     0.00000000000000    10.00000000000000
  8     1.42150000000000     4.26450000000000    10.00000000000000
 12     0.00000000000000     2.84300000000000    10.00000000000000
  8     4.26450000000000     1.42150000000000    10.00000000000000
 12     2.84300000000000     0.00000000000000    10.00000000000000
  8     4.26450000000000     4.26450000000000    10.00000000000000
 12     2.84300000000000     2.84300000000000    10.00000000000000
 26     1.41448288260623     1.51290792731604    13.00706946230974
 26     1.57928919249543     4.37516293900114    13.08668832896558
 26     4.25558504399366     1.40463995556306    12.98748561715959
 26     4.41241684699149     4.00522441871461    13.20058577612288
