SLAB
PRIMVEC
 14.89166881178869 0.00000000000000 0.00000000000000
 0.00000000000000 14.89166881178869 0.00000000000000
 0.00000000000000 0.00000000000000 41.48916688117887
PRIMCOORD
 75 1
  8     1.48916688117887     1.48916688117887    10.00000000000000
 12     0.00000000000000     0.00000000000000    10.00000000000000
  8     1.48916688117887     4.46750064353661    10.00000000000000
 12     0.00000000000000     2.97833376235774    10.00000000000000
  8     1.48916688117887     7.44583440589435    10.00000000000000
 12     0.00000000000000     5.95666752471548    10.00000000000000
  8     1.48916688117887    10.42416816825208    10.00000000000000
 12     0.00000000000000     8.93500128707321    10.00000000000000
  8     1.48916688117887    13.40250193060982    10.00000000000000
 12     0.00000000000000    11.91333504943095    10.00000000000000
  8     4.46750064353661     1.48916688117887    10.00000000000000
 12     2.97833376235774     0.00000000000000    10.00000000000000
  8     4.46750064353661     4.46750064353661    10.00000000000000
 12     2.97833376235774     2.97833376235774    10.00000000000000
  8     4.46750064353661     7.44583440589435    10.00000000000000
 12     2.97833376235774     5.95666752471548    10.00000000000000
  8     4.46750064353661    10.42416816825208    10.00000000000000
 12     2.97833376235774     8.93500128707321    10.00000000000000
  8     4.46750064353661    13.40250193060982    10.00000000000000
 12     2.97833376235774    11.91333504943095    10.00000000000000
  8     7.44583440589435     1.48916688117887    10.00000000000000
 12     5.95666752471548     0.00000000000000    10.00000000000000
  8     7.44583440589435     4.46750064353661    10.00000000000000
 12     5.95666752471548     2.97833376235774    10.00000000000000
  8     7.44583440589435     7.44583440589435    10.00000000000000
 12     5.95666752471548     5.95666752471548    10.00000000000000
  8     7.44583440589435    10.42416816825208    10.00000000000000
 12     5.95666752471548     8.93500128707321    10.00000000000000
  8     7.44583440589435    13.40250193060982    10.00000000000000
 12     5.95666752471548    11.91333504943095    10.00000000000000
  8    10.42416816825208     1.48916688117887    10.00000000000000
 12     8.93500128707321     0.00000000000000    10.00000000000000
  8    10.42416816825208     4.46750064353661    10.00000000000000
 12     8.93500128707321     2.97833376235774    10.00000000000000
  8    10.42416816825208     7.44583440589435    10.00000000000000
 12     8.93500128707321     5.95666752471548    10.00000000000000
  8    10.42416816825208    10.42416816825208    10.00000000000000
 12     8.93500128707321     8.93500128707321    10.00000000000000
  8    10.42416816825208    13.40250193060982    10.00000000000000
 12     8.93500128707321    11.91333504943095    10.00000000000000
  8    13.40250193060982     1.48916688117887    10.00000000000000
 12    11.91333504943095     0.00000000000000    10.00000000000000
  8    13.40250193060982     4.46750064353661    10.00000000000000
 12    11.91333504943095     2.97833376235774    10.00000000000000
  8    13.40250193060982     7.44583440589435    10.00000000000000
 12    11.91333504943095     5.95666752471548    10.00000000000000
  8    13.40250193060982    10.42416816825208    10.00000000000000
 12    11.91333504943095     8.93500128707321    10.00000000000000
  8    13.40250193060982    13.40250193060982    10.00000000000000
 12    11.91333504943095    11.91333504943095    10.00000000000000
 27     1.91168200285116     2.03783302928041    11.78120731384610
 27     1.78803758849295     4.23448743535604    11.88452829592668
 26     1.52769193975389     7.38034101368957    11.82105562441183
 26     1.53038036979920    10.46807186802832    11.48848807335333
 26     1.92088399095224    13.10272653590113    11.64033139537850
 27     4.45580147990352     1.48332761644630    11.94998557636862
 26     5.15079638775793     4.45600582341149    11.63639922132972
 27     4.33444020355024     6.90618694174518    11.85058430129916
 26     4.72337593261239    10.03212191095177    11.63858953011631
 26     4.41833176961019    13.38313566614900    11.83900100468061
 27     7.73382070758449     0.95728254545986    11.62696993428534
 26     7.61981104507141     4.69697341823467    11.46468144689597
 27     7.42074323924390     7.74546262597737    11.93015469116824
 26     8.00257791879914    10.29332381894264    11.44018596417378
 26     7.39896927092908    13.36885107317748    11.68135617205542
 26    10.30619967854879     2.41325731633002    11.41783872864698
 27    10.46535665355543     4.86742567609175    11.71181810085471
 26     9.87475376319972     7.52529250514361    11.56726429675340
 26    10.44275800934823    10.34172262068400    11.70275061416550
 26    10.68563956948514    13.06151859383920    11.84044471792343
 26    13.34301733233673     2.46412700199168    11.43432284627023
 26    14.14927167104522     4.41934813598348    11.50383498929045
 26    13.50875913241174     7.37331537227498    11.59991099874187
 26    14.38263751239452    10.51030792061033    11.58566979512871
 26    13.40242728289934    13.40210623216553    11.62066950651415
