SLAB
PRIMVEC
 14.89166881178869 0.00000000000000 0.00000000000000
 0.00000000000000 14.89166881178869 0.00000000000000
 0.00000000000000 0.00000000000000 41.48916688117887
PRIMCOORD
 75 1
  8     1.48916688117887     1.48916688117887    10.00000000000000
 12     0.00000000000000     0.00000000000000    10.00000000000000
  8     1.48916688117887     4.46750064353661    10.00000000000000
 12     0.00000000000000     2.97833376235774    10.00000000000000
  8     1.48916688117887     7.44583440589435    10.00000000000000
 12     0.00000000000000     5.95666752471548    10.00000000000000
  8     1.48916688117887    10.42416816825208    10.00000000000000
 12     0.00000000000000     8.93500128707321    10.00000000000000
  8     1.48916688117887    13.40250193060982    10.00000000000000
 12     0.00000000000000    11.91333504943095    10.00000000000000
  8     4.46750064353661     1.48916688117887    10.00000000000000
 12     2.97833376235774     0.00000000000000    10.00000000000000
  8     4.46750064353661     4.46750064353661    10.00000000000000
 12     2.97833376235774     2.97833376235774    10.00000000000000
  8     4.46750064353661     7.44583440589435    10.00000000000000
 12     2.97833376235774     5.95666752471548    10.00000000000000
  8     4.46750064353661    10.42416816825208    10.00000000000000
 12     2.97833376235774     8.93500128707321    10.00000000000000
  8     4.46750064353661    13.40250193060982    10.00000000000000
 12     2.97833376235774    11.91333504943095    10.00000000000000
  8     7.44583440589435     1.48916688117887    10.00000000000000
 12     5.95666752471548     0.00000000000000    10.00000000000000
  8     7.44583440589435     4.46750064353661    10.00000000000000
 12     5.95666752471548     2.97833376235774    10.00000000000000
  8     7.44583440589435     7.44583440589435    10.00000000000000
 12     5.95666752471548     5.95666752471548    10.00000000000000
  8     7.44583440589435    10.42416816825208    10.00000000000000
 12     5.95666752471548     8.93500128707321    10.00000000000000
  8     7.44583440589435    13.40250193060982    10.00000000000000
 12     5.95666752471548    11.91333504943095    10.00000000000000
  8    10.42416816825208     1.48916688117887    10.00000000000000
 12     8.93500128707321     0.00000000000000    10.00000000000000
  8    10.42416816825208     4.46750064353661    10.00000000000000
 12     8.93500128707321     2.97833376235774    10.00000000000000
  8    10.42416816825208     7.44583440589435    10.00000000000000
 12     8.93500128707321     5.95666752471548    10.00000000000000
  8    10.42416816825208    10.42416816825208    10.00000000000000
 12     8.93500128707321     8.93500128707321    10.00000000000000
  8    10.42416816825208    13.40250193060982    10.00000000000000
 12     8.93500128707321    11.91333504943095    10.00000000000000
  8    13.40250193060982     1.48916688117887    10.00000000000000
 12    11.91333504943095     0.00000000000000    10.00000000000000
  8    13.40250193060982     4.46750064353661    10.00000000000000
 12    11.91333504943095     2.97833376235774    10.00000000000000
  8    13.40250193060982     7.44583440589435    10.00000000000000
 12    11.91333504943095     5.95666752471548    10.00000000000000
  8    13.40250193060982    10.42416816825208    10.00000000000000
 12    11.91333504943095     8.93500128707321    10.00000000000000
  8    13.40250193060982    13.40250193060982    10.00000000000000
 12    11.91333504943095    11.91333504943095    10.00000000000000
 27     1.65897207089686     1.50379464914138    11.57276968418925
 27     0.99533940060324     4.66943383172749    11.47178045877949
 26     0.82796441912178     7.73782812253169    11.55819341892984
 26     1.80119871809287    11.07126383259704    11.67094110739659
 26     0.94347823889902    13.32912776612208    11.47729079066926
 27     3.57341721390596     1.54627489821548    11.53360188552840
 26     4.03166419345457     4.11825423400799    11.42759036901683
 27     4.33428996026958     7.43099483552960    11.89615755746714
 26     4.53337973912248    10.48800687711161    11.69042748845643
 26     4.00354107215908    13.17160868544755    11.51504970881789
 27     7.56444479328176     1.31450582646065    11.85152146392538
 26     7.90273885853065     5.13643043059589    11.60166597814723
 27     7.43617197897326     7.45739370999173    11.99511307904810
 26     7.90984191812239     9.99386139547255    11.56446656501623
 26     7.21552164897660    13.18722285311108    11.80052926332677
 26     9.94642253019477     1.73730133280482    11.38868839966471
 27    10.62071363079768     4.24921510489990    11.83164673231224
 26    10.23694458761014     7.48484481065497    11.55145361221395
 26    10.14271334913708     9.69104326533534    11.75035249094173
 26    10.24103143487546    12.49135820632782    11.50004351201206
 26    13.40370239071957     1.49515025503274    11.61326654008961
 26    13.18502370743559     4.72466784752163    11.54693494701024
 26    13.42922394633606     7.31128817512568    11.65503678420953
 26    13.67469636903948    10.92087500411678    11.45299684312762
 26    12.70668148258247    13.45417132088392    11.60232464537280
