SLAB
PRIMVEC
 14.89166881178869 0.00000000000000 0.00000000000000
 0.00000000000000 14.89166881178869 0.00000000000000
 0.00000000000000 0.00000000000000 41.48916688117887
PRIMCOORD
 75 1
 27     1.48916688117887     1.48916688117887    12.30000000000000
 27     1.48916688117887     4.46750064353661    12.30000000000000
 26     1.48916688117887     7.44583440589435    12.30000000000000
 26     1.48916688117887    10.42416816825208    12.30000000000000
 26     1.48916688117887    13.40250193060982    12.30000000000000
 27     4.46750064353661     1.48916688117887    12.30000000000000
 26     4.46750064353661     4.46750064353661    12.30000000000000
 27     4.46750064353661     7.44583440589435    12.30000000000000
 26     4.46750064353661    10.42416816825208    12.30000000000000
 26     4.46750064353661    13.40250193060982    12.30000000000000
 27     7.44583440589435     1.48916688117887    12.30000000000000
 26     7.44583440589435     4.46750064353661    12.30000000000000
 27     7.44583440589435     7.44583440589435    12.30000000000000
 26     7.44583440589435    10.42416816825208    12.30000000000000
 26     7.44583440589435    13.40250193060982    12.30000000000000
 26    10.42416816825208     1.48916688117887    12.30000000000000
 27    10.42416816825208     4.46750064353661    12.30000000000000
 26    10.42416816825208     7.44583440589435    12.30000000000000
 26    10.42416816825208    10.42416816825208    12.30000000000000
 26    10.42416816825208    13.40250193060982    12.30000000000000
 26    13.40250193060982     1.48916688117887    12.30000000000000
 26    13.40250193060982     4.46750064353661    12.30000000000000
 26    13.40250193060982     7.44583440589435    12.30000000000000
 26    13.40250193060982    10.42416816825208    12.30000000000000
 26    13.40250193060982    13.40250193060982    12.30000000000000
  8     1.48916688117887     1.48916688117887    10.00000000000000
 12     0.00000000000000     0.00000000000000    10.00000000000000
  8     1.48916688117887     4.46750064353661    10.00000000000000
 12     0.00000000000000     2.97833376235774    10.00000000000000
  8     1.48916688117887     7.44583440589435    10.00000000000000
 12     0.00000000000000     5.95666752471548    10.00000000000000
  8     1.48916688117887    10.42416816825208    10.00000000000000
 12     0.00000000000000     8.93500128707321    10.00000000000000
  8     1.48916688117887    13.40250193060982    10.00000000000000
 12     0.00000000000000    11.91333504943095    10.00000000000000
  8     4.46750064353661     1.48916688117887    10.00000000000000
 12     2.97833376235774     0.00000000000000    10.00000000000000
  8     4.46750064353661     4.46750064353661    10.00000000000000
 12     2.97833376235774     2.97833376235774    10.00000000000000
  8     4.46750064353661     7.44583440589435    10.00000000000000
 12     2.97833376235774     5.95666752471548    10.00000000000000
  8     4.46750064353661    10.42416816825208    10.00000000000000
 12     2.97833376235774     8.93500128707321    10.00000000000000
  8     4.46750064353661    13.40250193060982    10.00000000000000
 12     2.97833376235774    11.91333504943095    10.00000000000000
  8     7.44583440589435     1.48916688117887    10.00000000000000
 12     5.95666752471548     0.00000000000000    10.00000000000000
  8     7.44583440589435     4.46750064353661    10.00000000000000
 12     5.95666752471548     2.97833376235774    10.00000000000000
  8     7.44583440589435     7.44583440589435    10.00000000000000
 12     5.95666752471548     5.95666752471548    10.00000000000000
  8     7.44583440589435    10.42416816825208    10.00000000000000
 12     5.95666752471548     8.93500128707321    10.00000000000000
  8     7.44583440589435    13.40250193060982    10.00000000000000
 12     5.95666752471548    11.91333504943095    10.00000000000000
  8    10.42416816825208     1.48916688117887    10.00000000000000
 12     8.93500128707321     0.00000000000000    10.00000000000000
  8    10.42416816825208     4.46750064353661    10.00000000000000
 12     8.93500128707321     2.97833376235774    10.00000000000000
  8    10.42416816825208     7.44583440589435    10.00000000000000
 12     8.93500128707321     5.95666752471548    10.00000000000000
  8    10.42416816825208    10.42416816825208    10.00000000000000
 12     8.93500128707321     8.93500128707321    10.00000000000000
  8    10.42416816825208    13.40250193060982    10.00000000000000
 12     8.93500128707321    11.91333504943095    10.00000000000000
  8    13.40250193060982     1.48916688117887    10.00000000000000
 12    11.91333504943095     0.00000000000000    10.00000000000000
  8    13.40250193060982     4.46750064353661    10.00000000000000
 12    11.91333504943095     2.97833376235774    10.00000000000000
  8    13.40250193060982     7.44583440589435    10.00000000000000
 12    11.91333504943095     5.95666752471548    10.00000000000000
  8    13.40250193060982    10.42416816825208    10.00000000000000
 12    11.91333504943095     8.93500128707321    10.00000000000000
  8    13.40250193060982    13.40250193060982    10.00000000000000
 12    11.91333504943095    11.91333504943095    10.00000000000000
