SLAB
PRIMVEC
 14.89166881178869 0.00000000000000 0.00000000000000
 0.00000000000000 14.89166881178869 0.00000000000000
 0.00000000000000 0.00000000000000 41.48916688117887
PRIMCOORD
 75 1
  8     1.48916688117887     1.48916688117887    10.00000000000000
 12     0.00000000000000     0.00000000000000    10.00000000000000
  8     1.48916688117887     4.46750064353661    10.00000000000000
 12     0.00000000000000     2.97833376235774    10.00000000000000
  8     1.48916688117887     7.44583440589435    10.00000000000000
 12     0.00000000000000     5.95666752471548    10.00000000000000
  8     1.48916688117887    10.42416816825208    10.00000000000000
 12     0.00000000000000     8.93500128707321    10.00000000000000
  8     1.48916688117887    13.40250193060982    10.00000000000000
 12     0.00000000000000    11.91333504943095    10.00000000000000
  8     4.46750064353661     1.48916688117887    10.00000000000000
 12     2.97833376235774     0.00000000000000    10.00000000000000
  8     4.46750064353661     4.46750064353661    10.00000000000000
 12     2.97833376235774     2.97833376235774    10.00000000000000
  8     4.46750064353661     7.44583440589435    10.00000000000000
 12     2.97833376235774     5.95666752471548    10.00000000000000
  8     4.46750064353661    10.42416816825208    10.00000000000000
 12     2.97833376235774     8.93500128707321    10.00000000000000
  8     4.46750064353661    13.40250193060982    10.00000000000000
 12     2.97833376235774    11.91333504943095    10.00000000000000
  8     7.44583440589435     1.48916688117887    10.00000000000000
 12     5.95666752471548     0.00000000000000    10.00000000000000
  8     7.44583440589435     4.46750064353661    10.00000000000000
 12     5.95666752471548     2.97833376235774    10.00000000000000
  8     7.44583440589435     7.44583440589435    10.00000000000000
 12     5.95666752471548     5.95666752471548    10.00000000000000
  8     7.44583440589435    10.42416816825208    10.00000000000000
 12     5.95666752471548     8.93500128707321    10.00000000000000
  8     7.44583440589435    13.40250193060982    10.00000000000000
 12     5.95666752471548    11.91333504943095    10.00000000000000
  8    10.42416816825208     1.48916688117887    10.00000000000000
 12     8.93500128707321     0.00000000000000    10.00000000000000
  8    10.42416816825208     4.46750064353661    10.00000000000000
 12     8.93500128707321     2.97833376235774    10.00000000000000
  8    10.42416816825208     7.44583440589435    10.00000000000000
 12     8.93500128707321     5.95666752471548    10.00000000000000
  8    10.42416816825208    10.42416816825208    10.00000000000000
 12     8.93500128707321     8.93500128707321    10.00000000000000
  8    10.42416816825208    13.40250193060982    10.00000000000000
 12     8.93500128707321    11.91333504943095    10.00000000000000
  8    13.40250193060982     1.48916688117887    10.00000000000000
 12    11.91333504943095     0.00000000000000    10.00000000000000
  8    13.40250193060982     4.46750064353661    10.00000000000000
 12    11.91333504943095     2.97833376235774    10.00000000000000
  8    13.40250193060982     7.44583440589435    10.00000000000000
 12    11.91333504943095     5.95666752471548    10.00000000000000
  8    13.40250193060982    10.42416816825208    10.00000000000000
 12    11.91333504943095     8.93500128707321    10.00000000000000
  8    13.40250193060982    13.40250193060982    10.00000000000000
 12    11.91333504943095    11.91333504943095    10.00000000000000
 27     1.72063335060459     1.92829013639472    11.77544998934166
 27     0.53658514619766     4.24285200337120    11.62745302719954
 26     0.93142025622985     7.21271857270181    11.78227428960287
 26     2.32841127173119    10.14715286226081    11.68135061777263
 26     2.01726552236442    13.02602917011295    11.80127701138233
 27     4.26777379139434     1.19445965168056    11.57931491776766
 26     4.23178882740657     4.94144345120657    11.88822994669540
 27     4.93620774580983     7.34845213362470    11.86165728544960
 26     5.29002975470270    10.75454992964000    11.65960941922715
 26     4.44210772073808    13.51281254966156    11.67568960511512
 27     7.29384824849075     1.51018644802523    11.67837122840799
 26     7.39794779491324     4.08898242208132    11.76449595287349
 27     7.06117469329453     7.65446821364334    11.70366050265668
 26     7.41069097076985    10.34592485975402    11.62650553346839
 26     7.32438757089307    12.93541926060714    11.55903208090838
 26    10.29742724207106     1.24525185155412    11.77505845331386
 27     9.68525377433277     4.70294090434684    11.58299300308826
 26    10.71260166199955     7.76791551657655    11.70892306130560
 26    10.38085170450033    10.58576701935968    11.56283480667435
 26    10.53965434710393    13.39769294713512    11.71648555054204
 26    13.00609809147340     1.52337453443843    11.93942872263035
 26    13.40611801226775     4.07500880701313    11.70099073839995
 26    13.59456401491204     6.88966877207909    11.68069038564455
 26    13.35637910574681    11.36258318164483    11.65982915715077
 26    13.44228250085693    13.84279768219847    11.75762232899615
