SLAB
PRIMVEC
 14.89166881178869 0.00000000000000 0.00000000000000
 0.00000000000000 14.89166881178869 0.00000000000000
 0.00000000000000 0.00000000000000 41.48916688117887
PRIMCOORD
 75 1
  8     1.48916688117887     1.48916688117887    10.00000000000000
 12     0.00000000000000     0.00000000000000    10.00000000000000
  8     1.48916688117887     4.46750064353661    10.00000000000000
 12     0.00000000000000     2.97833376235774    10.00000000000000
  8     1.48916688117887     7.44583440589435    10.00000000000000
 12     0.00000000000000     5.95666752471548    10.00000000000000
  8     1.48916688117887    10.42416816825208    10.00000000000000
 12     0.00000000000000     8.93500128707321    10.00000000000000
  8     1.48916688117887    13.40250193060982    10.00000000000000
 12     0.00000000000000    11.91333504943095    10.00000000000000
  8     4.46750064353661     1.48916688117887    10.00000000000000
 12     2.97833376235774     0.00000000000000    10.00000000000000
  8     4.46750064353661     4.46750064353661    10.00000000000000
 12     2.97833376235774     2.97833376235774    10.00000000000000
  8     4.46750064353661     7.44583440589435    10.00000000000000
 12     2.97833376235774     5.95666752471548    10.00000000000000
  8     4.46750064353661    10.42416816825208    10.00000000000000
 12     2.97833376235774     8.93500128707321    10.00000000000000
  8     4.46750064353661    13.40250193060982    10.00000000000000
 12     2.97833376235774    11.91333504943095    10.00000000000000
  8     7.44583440589435     1.48916688117887    10.00000000000000
 12     5.95666752471548     0.00000000000000    10.00000000000000
  8     7.44583440589435     4.46750064353661    10.00000000000000
 12     5.95666752471548     2.97833376235774    10.00000000000000
  8     7.44583440589435     7.44583440589435    10.00000000000000
 12     5.95666752471548     5.95666752471548    10.00000000000000
  8     7.44583440589435    10.42416816825208    10.00000000000000
 12     5.95666752471548     8.93500128707321    10.00000000000000
  8     7.44583440589435    13.40250193060982    10.00000000000000
 12     5.95666752471548    11.91333504943095    10.00000000000000
  8    10.42416816825208     1.48916688117887    10.00000000000000
 12     8.93500128707321     0.00000000000000    10.00000000000000
  8    10.42416816825208     4.46750064353661    10.00000000000000
 12     8.93500128707321     2.97833376235774    10.00000000000000
  8    10.42416816825208     7.44583440589435    10.00000000000000
 12     8.93500128707321     5.95666752471548    10.00000000000000
  8    10.42416816825208    10.42416816825208    10.00000000000000
 12     8.93500128707321     8.93500128707321    10.00000000000000
  8    10.42416816825208    13.40250193060982    10.00000000000000
 12     8.93500128707321    11.91333504943095    10.00000000000000
  8    13.40250193060982     1.48916688117887    10.00000000000000
 12    11.91333504943095     0.00000000000000    10.00000000000000
  8    13.40250193060982     4.46750064353661    10.00000000000000
 12    11.91333504943095     2.97833376235774    10.00000000000000
  8    13.40250193060982     7.44583440589435    10.00000000000000
 12    11.91333504943095     5.95666752471548    10.00000000000000
  8    13.40250193060982    10.42416816825208    10.00000000000000
 12    11.91333504943095     8.93500128707321    10.00000000000000
  8    13.40250193060982    13.40250193060982    10.00000000000000
 12    11.91333504943095    11.91333504943095    10.00000000000000
 27     1.72063335060459     1.92829013639472    11.77544998934166
 27     2.01841761597229     5.10640340011954    12.30167042395527
 26     0.43907839887983     8.96070545046410    12.17518973577646
 26     2.27026525075562    10.59279566486359    13.65049672505935
 26     2.02452120930009    13.02638265624090    12.92025801910428
 27     4.26777379139434     1.19445965168056    11.57931491776766
 26     4.23178882740657     4.94144345120657    11.88822994669540
 27     4.93620774580983     7.34845213362470    11.86165728544960
 26     5.29002975470270    10.75454992964000    11.65960941922715
 26     5.38545696871198    14.18331422798940    13.27534674811178
 27     7.62426029391692     1.78163707103244    13.93319291106789
 26     7.42218050421488     4.12491041459571    13.66792813818140
 27     7.06117469329453     7.65446821364334    11.70366050265668
 26     7.28676719669422    10.19274875509918    13.70495068560690
 26     7.32438757089307    12.93541926060714    11.55903208090838
 26    10.29742724207106     1.24525185155412    11.77505845331386
 27     9.48151421770105     4.22856598000274    13.28597699462368
 26    10.60524311130163     8.75966959592814    12.34956208815936
 26    10.77133202046877    10.99413089277610    12.49448486313635
 26    10.53965434710393    13.39769294713512    11.71648555054204
 26    13.00609809147340     1.52337453443843    11.93942872263035
 26    13.40611801226775     4.07500880701313    11.70099073839995
 26    12.51420339608851     6.34807411876127    12.62801083538541
 26    13.35637910574681    11.36258318164483    11.65982915715077
 26    13.44228250085693    13.84279768219847    11.75762232899615
