SLAB
PRIMVEC
 14.89166881178869 0.00000000000000 0.00000000000000
 0.00000000000000 14.89166881178869 0.00000000000000
 0.00000000000000 0.00000000000000 41.48916688117887
PRIMCOORD
 75 1
  8     1.48916688117887     1.48916688117887    10.00000000000000
 12     0.00000000000000     0.00000000000000    10.00000000000000
  8     1.48916688117887     4.46750064353661    10.00000000000000
 12     0.00000000000000     2.97833376235774    10.00000000000000
  8     1.48916688117887     7.44583440589435    10.00000000000000
 12     0.00000000000000     5.95666752471548    10.00000000000000
  8     1.48916688117887    10.42416816825208    10.00000000000000
 12     0.00000000000000     8.93500128707321    10.00000000000000
  8     1.48916688117887    13.40250193060982    10.00000000000000
 12     0.00000000000000    11.91333504943095    10.00000000000000
  8     4.46750064353661     1.48916688117887    10.00000000000000
 12     2.97833376235774     0.00000000000000    10.00000000000000
  8     4.46750064353661     4.46750064353661    10.00000000000000
 12     2.97833376235774     2.97833376235774    10.00000000000000
  8     4.46750064353661     7.44583440589435    10.00000000000000
 12     2.97833376235774     5.95666752471548    10.00000000000000
  8     4.46750064353661    10.42416816825208    10.00000000000000
 12     2.97833376235774     8.93500128707321    10.00000000000000
  8     4.46750064353661    13.40250193060982    10.00000000000000
 12     2.97833376235774    11.91333504943095    10.00000000000000
  8     7.44583440589435     1.48916688117887    10.00000000000000
 12     5.95666752471548     0.00000000000000    10.00000000000000
  8     7.44583440589435     4.46750064353661    10.00000000000000
 12     5.95666752471548     2.97833376235774    10.00000000000000
  8     7.44583440589435     7.44583440589435    10.00000000000000
 12     5.95666752471548     5.95666752471548    10.00000000000000
  8     7.44583440589435    10.42416816825208    10.00000000000000
 12     5.95666752471548     8.93500128707321    10.00000000000000
  8     7.44583440589435    13.40250193060982    10.00000000000000
 12     5.95666752471548    11.91333504943095    10.00000000000000
  8    10.42416816825208     1.48916688117887    10.00000000000000
 12     8.93500128707321     0.00000000000000    10.00000000000000
  8    10.42416816825208     4.46750064353661    10.00000000000000
 12     8.93500128707321     2.97833376235774    10.00000000000000
  8    10.42416816825208     7.44583440589435    10.00000000000000
 12     8.93500128707321     5.95666752471548    10.00000000000000
  8    10.42416816825208    10.42416816825208    10.00000000000000
 12     8.93500128707321     8.93500128707321    10.00000000000000
  8    10.42416816825208    13.40250193060982    10.00000000000000
 12     8.93500128707321    11.91333504943095    10.00000000000000
  8    13.40250193060982     1.48916688117887    10.00000000000000
 12    11.91333504943095     0.00000000000000    10.00000000000000
  8    13.40250193060982     4.46750064353661    10.00000000000000
 12    11.91333504943095     2.97833376235774    10.00000000000000
  8    13.40250193060982     7.44583440589435    10.00000000000000
 12    11.91333504943095     5.95666752471548    10.00000000000000
  8    13.40250193060982    10.42416816825208    10.00000000000000
 12    11.91333504943095     8.93500128707321    10.00000000000000
  8    13.40250193060982    13.40250193060982    10.00000000000000
 12    11.91333504943095    11.91333504943095    10.00000000000000
 27     1.61810760098105     1.85661319644032    11.43370013240860
 27     1.60381166642057     5.19571482478638    11.65002685845141
 26     2.05515664154038     7.88045217030637    11.58657282717600
 26     1.75283296937189    10.48987300144102    11.86241889262241
 26     0.51000168889346    13.39768248592837    11.44775797362053
 27     4.66193620510727     1.37362947778918    11.65995330848342
 26     4.31849385522267     4.81572687058865    11.64305467314122
 27     4.33102831820270     7.94961633241821    11.58088943313642
 26     4.72929278841360    10.52850868648044    11.64728169845578
 26     4.39638775629891    13.25228760695991    11.85745094058966
 27     7.57042840626640     1.71098828115731    11.65564370352661
 26     7.45843810859337     4.71531460307847    11.63157468857040
 27     7.63886494312866     6.95408128262717    11.75841157545661
 26     7.62867612920019    11.45680364671251    11.55139875313040
 26     7.53679644169487    13.72515918132366    11.87640357393521
 26    10.46221579731432     1.24970802822806    11.66077196933074
 27    11.14847490788637     4.30772818480932    11.52247658256022
 26    10.09326887486231     7.90752693070574    11.73037097487606
 26    10.45957593671834    10.32645849453958    11.89709212420772
 26    10.64428528183807    13.95097932249431    11.87585304787194
 26    13.25173616823155     1.85733297527182    11.58278543278592
 26    13.12619100013530     3.98509975455069    11.52056879618280
 26    13.41390515616596     7.01371681057553    11.58897778061753
 26    13.40194537725310    10.66256318651403    11.88689004951099
 26    13.32667177086035    14.13931325957248    11.71053796965303
