SLAB
PRIMVEC
 14.89166881178869 0.00000000000000 0.00000000000000
 0.00000000000000 14.89166881178869 0.00000000000000
 0.00000000000000 0.00000000000000 41.48916688117887
PRIMCOORD
 75 1
  8     1.48916688117887     1.48916688117887    10.00000000000000
 12     0.00000000000000     0.00000000000000    10.00000000000000
  8     1.48916688117887     4.46750064353661    10.00000000000000
 12     0.00000000000000     2.97833376235774    10.00000000000000
  8     1.48916688117887     7.44583440589435    10.00000000000000
 12     0.00000000000000     5.95666752471548    10.00000000000000
  8     1.48916688117887    10.42416816825208    10.00000000000000
 12     0.00000000000000     8.93500128707321    10.00000000000000
  8     1.48916688117887    13.40250193060982    10.00000000000000
 12     0.00000000000000    11.91333504943095    10.00000000000000
  8     4.46750064353661     1.48916688117887    10.00000000000000
 12     2.97833376235774     0.00000000000000    10.00000000000000
  8     4.46750064353661     4.46750064353661    10.00000000000000
 12     2.97833376235774     2.97833376235774    10.00000000000000
  8     4.46750064353661     7.44583440589435    10.00000000000000
 12     2.97833376235774     5.95666752471548    10.00000000000000
  8     4.46750064353661    10.42416816825208    10.00000000000000
 12     2.97833376235774     8.93500128707321    10.00000000000000
  8     4.46750064353661    13.40250193060982    10.00000000000000
 12     2.97833376235774    11.91333504943095    10.00000000000000
  8     7.44583440589435     1.48916688117887    10.00000000000000
 12     5.95666752471548     0.00000000000000    10.00000000000000
  8     7.44583440589435     4.46750064353661    10.00000000000000
 12     5.95666752471548     2.97833376235774    10.00000000000000
  8     7.44583440589435     7.44583440589435    10.00000000000000
 12     5.95666752471548     5.95666752471548    10.00000000000000
  8     7.44583440589435    10.42416816825208    10.00000000000000
 12     5.95666752471548     8.93500128707321    10.00000000000000
  8     7.44583440589435    13.40250193060982    10.00000000000000
 12     5.95666752471548    11.91333504943095    10.00000000000000
  8    10.42416816825208     1.48916688117887    10.00000000000000
 12     8.93500128707321     0.00000000000000    10.00000000000000
  8    10.42416816825208     4.46750064353661    10.00000000000000
 12     8.93500128707321     2.97833376235774    10.00000000000000
  8    10.42416816825208     7.44583440589435    10.00000000000000
 12     8.93500128707321     5.95666752471548    10.00000000000000
  8    10.42416816825208    10.42416816825208    10.00000000000000
 12     8.93500128707321     8.93500128707321    10.00000000000000
  8    10.42416816825208    13.40250193060982    10.00000000000000
 12     8.93500128707321    11.91333504943095    10.00000000000000
  8    13.40250193060982     1.48916688117887    10.00000000000000
 12    11.91333504943095     0.00000000000000    10.00000000000000
  8    13.40250193060982     4.46750064353661    10.00000000000000
 12    11.91333504943095     2.97833376235774    10.00000000000000
  8    13.40250193060982     7.44583440589435    10.00000000000000
 12    11.91333504943095     5.95666752471548    10.00000000000000
  8    13.40250193060982    10.42416816825208    10.00000000000000
 12    11.91333504943095     8.93500128707321    10.00000000000000
  8    13.40250193060982    13.40250193060982    10.00000000000000
 12    11.91333504943095    11.91333504943095    10.00000000000000
 27     1.60028459303742     1.43448115626551    11.85782278869443
 27     1.84734386131279     4.44128941573842    11.58161129762217
 26     1.28475530867612     7.08793120206330    11.43788428998503
 26     1.31014659274141    11.13236701764764    11.62593211477265
 26     1.44788841077882    13.26234740132972    11.95582914778994
 27     4.58741068268225     2.32847107145350    11.32493131722795
 26     3.95612973101682     4.96148688058944    11.62344790790932
 27     4.68940102943104     7.94378031285044    11.61414064839497
 26     4.20146392128733    11.40516541205518    11.57675668602442
 26     4.52581191694718    13.76070933955121    11.64324540524251
 27     7.29186515754289     0.42909207145433    11.44242866486874
 26     7.57329535085921     4.96892890794881    11.70673396155391
 27     7.41198454843632     7.48852013092097    11.56107492448550
 26     7.62662725964197    10.33200225856018    11.89421772417943
 26     7.44024184041426    12.66796693522671    11.29310135431436
 26    10.48895871062223     1.47372838834807    11.75541891626040
 27    10.50360957368965     4.16474095043523    11.49251127316904
 26    11.16605215609063     7.61673236251543    11.74435017747804
 26    10.72152117143975    10.75485519335629    11.91694998618712
 26    10.11942692923653    13.91412945494687    11.69006313181858
 26    13.43611215501693     2.12214566652297    11.57934521361618
 26    13.65553430883394     4.15013469800759    11.55097028228181
 26    13.80007989867293     7.34146658905384    11.72185262109238
 26    13.46365431214709    10.43706263549489    11.77370269125517
 26    13.64794070077646    13.27860139731372    11.71147126446485
