SLAB
PRIMVEC
 5.68600000000000 0.00000000000000 0.00000000000000
 0.00000000000000 5.68600000000000 0.00000000000000
 0.00000000000000 0.00000000000000 41.42150000000000
PRIMCOORD
 16 1
 27     0.00000000000000     0.00000000000000    12.30000000000000
 27     0.00000000000000     2.84300000000000    12.30000000000000
 27     2.84300000000000     0.00000000000000    12.30000000000000
 27     2.84300000000000     2.84300000000000    12.30000000000000
  8     1.42150000000000     1.42150000000000    10.00000000000000
 12     0.00000000000000     0.00000000000000    10.00000000000000
  8     1.42150000000000     4.26450000000000    10.00000000000000
 12     0.00000000000000     2.84300000000000    10.00000000000000
  8     4.26450000000000     1.42150000000000    10.00000000000000
 12     2.84300000000000     0.00000000000000    10.00000000000000
  8     4.26450000000000     4.26450000000000    10.00000000000000
 12     2.84300000000000     2.84300000000000    10.00000000000000
 26     1.21732047755008     1.33049942098985    13.21492576246912
 26     1.54836749424196     4.45474477304075    13.46290703579883
 26     4.30277367283599     1.28784677914409    13.45216800892393
 26     4.23565244432529     4.53730134635642    13.50056317561871
