SLAB
PRIMVEC
 14.89166881178869 0.00000000000000 0.00000000000000
 0.00000000000000 14.89166881178869 0.00000000000000
 0.00000000000000 0.00000000000000 41.48916688117887
PRIMCOORD
 75 1
  8     1.48916688117887     1.48916688117887    10.00000000000000
 12     0.00000000000000     0.00000000000000    10.00000000000000
  8     1.48916688117887     4.46750064353661    10.00000000000000
 12     0.00000000000000     2.97833376235774    10.00000000000000
  8     1.48916688117887     7.44583440589435    10.00000000000000
 12     0.00000000000000     5.95666752471548    10.00000000000000
  8     1.48916688117887    10.42416816825208    10.00000000000000
 12     0.00000000000000     8.93500128707321    10.00000000000000
  8     1.48916688117887    13.40250193060982    10.00000000000000
 12     0.00000000000000    11.91333504943095    10.00000000000000
  8     4.46750064353661     1.48916688117887    10.00000000000000
 12     2.97833376235774     0.00000000000000    10.00000000000000
  8     4.46750064353661     4.46750064353661    10.00000000000000
 12     2.97833376235774     2.97833376235774    10.00000000000000
  8     4.46750064353661     7.44583440589435    10.00000000000000
 12     2.97833376235774     5.95666752471548    10.00000000000000
  8     4.46750064353661    10.42416816825208    10.00000000000000
 12     2.97833376235774     8.93500128707321    10.00000000000000
  8     4.46750064353661    13.40250193060982    10.00000000000000
 12     2.97833376235774    11.91333504943095    10.00000000000000
  8     7.44583440589435     1.48916688117887    10.00000000000000
 12     5.95666752471548     0.00000000000000    10.00000000000000
  8     7.44583440589435     4.46750064353661    10.00000000000000
 12     5.95666752471548     2.97833376235774    10.00000000000000
  8     7.44583440589435     7.44583440589435    10.00000000000000
 12     5.95666752471548     5.95666752471548    10.00000000000000
  8     7.44583440589435    10.42416816825208    10.00000000000000
 12     5.95666752471548     8.93500128707321    10.00000000000000
  8     7.44583440589435    13.40250193060982    10.00000000000000
 12     5.95666752471548    11.91333504943095    10.00000000000000
  8    10.42416816825208     1.48916688117887    10.00000000000000
 12     8.93500128707321     0.00000000000000    10.00000000000000
  8    10.42416816825208     4.46750064353661    10.00000000000000
 12     8.93500128707321     2.97833376235774    10.00000000000000
  8    10.42416816825208     7.44583440589435    10.00000000000000
 12     8.93500128707321     5.95666752471548    10.00000000000000
  8    10.42416816825208    10.42416816825208    10.00000000000000
 12     8.93500128707321     8.93500128707321    10.00000000000000
  8    10.42416816825208    13.40250193060982    10.00000000000000
 12     8.93500128707321    11.91333504943095    10.00000000000000
  8    13.40250193060982     1.48916688117887    10.00000000000000
 12    11.91333504943095     0.00000000000000    10.00000000000000
  8    13.40250193060982     4.46750064353661    10.00000000000000
 12    11.91333504943095     2.97833376235774    10.00000000000000
  8    13.40250193060982     7.44583440589435    10.00000000000000
 12    11.91333504943095     5.95666752471548    10.00000000000000
  8    13.40250193060982    10.42416816825208    10.00000000000000
 12    11.91333504943095     8.93500128707321    10.00000000000000
  8    13.40250193060982    13.40250193060982    10.00000000000000
 12    11.91333504943095    11.91333504943095    10.00000000000000
 27     1.46681771571146     1.41105355098115    11.96627645605545
 27     1.77951458928750     4.33491356706483    11.57788169223202
 26     1.35101501690411     6.81801035819322    11.39590167702763
 26     1.56431188661981    10.63812933951866    11.59100866157521
 26     1.07241908770334    14.09950056248149    11.73114919788273
 27     4.42513700298015     1.44589369314973    11.73705071490441
 26     4.33841154454011     4.79974941032625    11.51084065459650
 27     4.55365866631188     7.48967690592125    11.82493672098113
 26     4.69026906948502    10.51688667772135    11.86388734393417
 26     4.52844028230651    13.30943147762888    11.96916626770949
 27     7.45810763557633     1.48670744620288    11.96100920602896
 26     7.33337567556678     4.18873920248437    11.75875479700799
 27     7.42347307692898     6.87407982228052    11.87872419349227
 26     7.38490812077786    10.18109861259117    11.89916902976817
 26     7.27460015328548    13.00646585470882    11.80786554437532
 26    11.13336387879631     1.70094909584762    11.42310811647596
 27    10.77240881435728     4.16615367905174    11.57101973322804
 26    10.36541122491498     7.99942548115329    11.54073945467191
 26    10.36031965869789    10.43564983313466    11.85594848028681
 26    10.40583015401812    13.30990042605170    11.94508477860971
 26    14.05065421868372     1.13857925990200    11.72818525212293
 26    13.01829077439687     4.94007329360931    11.70354088307477
 26    13.35002244741094     7.73519916103006    11.49701760392142
 26    13.37931689976129    10.39407034793937    11.56428547359975
 26    13.62232951482937    14.07683495815775    11.65709151397754
