SLAB
PRIMVEC
 14.89166881178869 0.00000000000000 0.00000000000000
 0.00000000000000 14.89166881178869 0.00000000000000
 0.00000000000000 0.00000000000000 41.48916688117887
PRIMCOORD
 75 1
  8     1.48916688117887     1.48916688117887    10.00000000000000
 12     0.00000000000000     0.00000000000000    10.00000000000000
  8     1.48916688117887     4.46750064353661    10.00000000000000
 12     0.00000000000000     2.97833376235774    10.00000000000000
  8     1.48916688117887     7.44583440589435    10.00000000000000
 12     0.00000000000000     5.95666752471548    10.00000000000000
  8     1.48916688117887    10.42416816825208    10.00000000000000
 12     0.00000000000000     8.93500128707321    10.00000000000000
  8     1.48916688117887    13.40250193060982    10.00000000000000
 12     0.00000000000000    11.91333504943095    10.00000000000000
  8     4.46750064353661     1.48916688117887    10.00000000000000
 12     2.97833376235774     0.00000000000000    10.00000000000000
  8     4.46750064353661     4.46750064353661    10.00000000000000
 12     2.97833376235774     2.97833376235774    10.00000000000000
  8     4.46750064353661     7.44583440589435    10.00000000000000
 12     2.97833376235774     5.95666752471548    10.00000000000000
  8     4.46750064353661    10.42416816825208    10.00000000000000
 12     2.97833376235774     8.93500128707321    10.00000000000000
  8     4.46750064353661    13.40250193060982    10.00000000000000
 12     2.97833376235774    11.91333504943095    10.00000000000000
  8     7.44583440589435     1.48916688117887    10.00000000000000
 12     5.95666752471548     0.00000000000000    10.00000000000000
  8     7.44583440589435     4.46750064353661    10.00000000000000
 12     5.95666752471548     2.97833376235774    10.00000000000000
  8     7.44583440589435     7.44583440589435    10.00000000000000
 12     5.95666752471548     5.95666752471548    10.00000000000000
  8     7.44583440589435    10.42416816825208    10.00000000000000
 12     5.95666752471548     8.93500128707321    10.00000000000000
  8     7.44583440589435    13.40250193060982    10.00000000000000
 12     5.95666752471548    11.91333504943095    10.00000000000000
  8    10.42416816825208     1.48916688117887    10.00000000000000
 12     8.93500128707321     0.00000000000000    10.00000000000000
  8    10.42416816825208     4.46750064353661    10.00000000000000
 12     8.93500128707321     2.97833376235774    10.00000000000000
  8    10.42416816825208     7.44583440589435    10.00000000000000
 12     8.93500128707321     5.95666752471548    10.00000000000000
  8    10.42416816825208    10.42416816825208    10.00000000000000
 12     8.93500128707321     8.93500128707321    10.00000000000000
  8    10.42416816825208    13.40250193060982    10.00000000000000
 12     8.93500128707321    11.91333504943095    10.00000000000000
  8    13.40250193060982     1.48916688117887    10.00000000000000
 12    11.91333504943095     0.00000000000000    10.00000000000000
  8    13.40250193060982     4.46750064353661    10.00000000000000
 12    11.91333504943095     2.97833376235774    10.00000000000000
  8    13.40250193060982     7.44583440589435    10.00000000000000
 12    11.91333504943095     5.95666752471548    10.00000000000000
  8    13.40250193060982    10.42416816825208    10.00000000000000
 12    11.91333504943095     8.93500128707321    10.00000000000000
  8    13.40250193060982    13.40250193060982    10.00000000000000
 12    11.91333504943095    11.91333504943095    10.00000000000000
 27     1.32959967120186     2.07979596279708    11.82783396958947
 27     1.82529938293092     4.51867311795410    11.53140475291815
 26     1.48993134805246     8.30772803563754    11.60593624665880
 26     1.25945447532276    10.61769036438273    11.80717603541011
 26     0.99589422290491    13.16995465697481    11.78505913812132
 27     4.36847671285953     1.53020779368614    11.92093279460520
 26     4.79376050885731     5.07515955700112    11.82316432013406
 27     4.55895338199872     7.85530279105842    11.49660688696442
 26     4.81532223893563    11.09634075355690    11.55497104149308
 26     4.47080128081790    13.38570408639954    11.72084413928566
 27     7.33302006858233     1.00932488734578    11.88125337492560
 26     7.73689509444067     5.24571892646466    11.67057315191025
 27     6.93515203152942     7.01838441597917    11.68106384881149
 26     7.28383984704834    10.36204104089139    11.65367750872703
 26     7.20244426993147    13.63499536382607    11.82033862209488
 26    10.80757142784134     2.18365682123520    11.56596310510016
 27    11.39036879117010     4.54752055990659    11.56950504148658
 26    10.06614520251128     7.41337885798050    11.46947174715891
 26    10.25270972085643    10.31225874513031    11.82989071383837
 26    10.22836318252972    13.10212379882483    11.72284616443551
 26    13.47270768982038     1.38758157512124    11.98472961121287
 26    13.43704276022382     4.52146296600570    11.60881880497979
 26    13.42538132352301     7.50908156529886    11.69827525728210
 26    13.92823770858825    10.10097890762539    11.79940671863905
 26    13.43338963826272    13.55509961106115    11.78688019227404
