SLAB
PRIMVEC
 14.89166881178869 0.00000000000000 0.00000000000000
 0.00000000000000 14.89166881178869 0.00000000000000
 0.00000000000000 0.00000000000000 41.48916688117887
PRIMCOORD
 75 1
  8     1.48916688117887     1.48916688117887    10.00000000000000
 12     0.00000000000000     0.00000000000000    10.00000000000000
  8     1.48916688117887     4.46750064353661    10.00000000000000
 12     0.00000000000000     2.97833376235774    10.00000000000000
  8     1.48916688117887     7.44583440589435    10.00000000000000
 12     0.00000000000000     5.95666752471548    10.00000000000000
  8     1.48916688117887    10.42416816825208    10.00000000000000
 12     0.00000000000000     8.93500128707321    10.00000000000000
  8     1.48916688117887    13.40250193060982    10.00000000000000
 12     0.00000000000000    11.91333504943095    10.00000000000000
  8     4.46750064353661     1.48916688117887    10.00000000000000
 12     2.97833376235774     0.00000000000000    10.00000000000000
  8     4.46750064353661     4.46750064353661    10.00000000000000
 12     2.97833376235774     2.97833376235774    10.00000000000000
  8     4.46750064353661     7.44583440589435    10.00000000000000
 12     2.97833376235774     5.95666752471548    10.00000000000000
  8     4.46750064353661    10.42416816825208    10.00000000000000
 12     2.97833376235774     8.93500128707321    10.00000000000000
  8     4.46750064353661    13.40250193060982    10.00000000000000
 12     2.97833376235774    11.91333504943095    10.00000000000000
  8     7.44583440589435     1.48916688117887    10.00000000000000
 12     5.95666752471548     0.00000000000000    10.00000000000000
  8     7.44583440589435     4.46750064353661    10.00000000000000
 12     5.95666752471548     2.97833376235774    10.00000000000000
  8     7.44583440589435     7.44583440589435    10.00000000000000
 12     5.95666752471548     5.95666752471548    10.00000000000000
  8     7.44583440589435    10.42416816825208    10.00000000000000
 12     5.95666752471548     8.93500128707321    10.00000000000000
  8     7.44583440589435    13.40250193060982    10.00000000000000
 12     5.95666752471548    11.91333504943095    10.00000000000000
  8    10.42416816825208     1.48916688117887    10.00000000000000
 12     8.93500128707321     0.00000000000000    10.00000000000000
  8    10.42416816825208     4.46750064353661    10.00000000000000
 12     8.93500128707321     2.97833376235774    10.00000000000000
  8    10.42416816825208     7.44583440589435    10.00000000000000
 12     8.93500128707321     5.95666752471548    10.00000000000000
  8    10.42416816825208    10.42416816825208    10.00000000000000
 12     8.93500128707321     8.93500128707321    10.00000000000000
  8    10.42416816825208    13.40250193060982    10.00000000000000
 12     8.93500128707321    11.91333504943095    10.00000000000000
  8    13.40250193060982     1.48916688117887    10.00000000000000
 12    11.91333504943095     0.00000000000000    10.00000000000000
  8    13.40250193060982     4.46750064353661    10.00000000000000
 12    11.91333504943095     2.97833376235774    10.00000000000000
  8    13.40250193060982     7.44583440589435    10.00000000000000
 12    11.91333504943095     5.95666752471548    10.00000000000000
  8    13.40250193060982    10.42416816825208    10.00000000000000
 12    11.91333504943095     8.93500128707321    10.00000000000000
  8    13.40250193060982    13.40250193060982    10.00000000000000
 12    11.91333504943095    11.91333504943095    10.00000000000000
 27     1.14567673836777     1.66727034161564    11.74007299125208
 27     1.91710971122560     4.80056699752885    11.37395107830214
 26     1.79093064721366     7.40499889375430    11.49712736660861
 26     1.03202407412908    10.61583963693380    11.80527363322379
 26     1.33682446699757    13.26258688578692    11.81371692819759
 27     4.88309676429358     1.63419794634683    11.79107684604954
 26     4.44330888159204     4.42198180499214    11.54395177195654
 27     5.27852273330895     7.10000760780385    11.51981157283685
 26     4.46271861795246    10.50174885447829    11.99279554608485
 26     4.83757938619704    13.42717474976664    11.47240728249530
 27     7.31786918910913     1.66784360249134    11.45950745383840
 26     7.72043461247737     4.40514168596890    11.71682982103411
 27     7.46649062902209     7.66251850831559    11.55946935504759
 26     7.27954054386750    10.39427428110155    11.60801481307651
 26     7.31013977201908    13.62657961084917    11.95524913141687
 26    10.34288977715662     1.55595066152484    11.92249150460051
 27    10.41392076728309     4.61406827151063    11.62714555303183
 26    10.40219346446410     7.42430585637401    11.85452427905173
 26    10.40124108443687    10.45173069306018    11.92740155760709
 26    10.62713563876064    13.38649199789731    11.74006361323639
 26    13.69995062152620     1.65105278773402    11.87899603679129
 26    12.79145518485992     4.64635746231005    11.77008811659606
 26    13.01499922746022     7.71713638449308    11.86070992335210
 26    12.75294049182178    10.45661737056821    11.37936116907963
 26    13.35935824141610    13.14869156437828    11.50917614903146
