SLAB
PRIMVEC
 14.89166881178869 0.00000000000000 0.00000000000000
 0.00000000000000 14.89166881178869 0.00000000000000
 0.00000000000000 0.00000000000000 41.48916688117887
PRIMCOORD
 75 1
  8     1.48916688117887     1.48916688117887    10.00000000000000
 12     0.00000000000000     0.00000000000000    10.00000000000000
  8     1.48916688117887     4.46750064353661    10.00000000000000
 12     0.00000000000000     2.97833376235774    10.00000000000000
  8     1.48916688117887     7.44583440589435    10.00000000000000
 12     0.00000000000000     5.95666752471548    10.00000000000000
  8     1.48916688117887    10.42416816825208    10.00000000000000
 12     0.00000000000000     8.93500128707321    10.00000000000000
  8     1.48916688117887    13.40250193060982    10.00000000000000
 12     0.00000000000000    11.91333504943095    10.00000000000000
  8     4.46750064353661     1.48916688117887    10.00000000000000
 12     2.97833376235774     0.00000000000000    10.00000000000000
  8     4.46750064353661     4.46750064353661    10.00000000000000
 12     2.97833376235774     2.97833376235774    10.00000000000000
  8     4.46750064353661     7.44583440589435    10.00000000000000
 12     2.97833376235774     5.95666752471548    10.00000000000000
  8     4.46750064353661    10.42416816825208    10.00000000000000
 12     2.97833376235774     8.93500128707321    10.00000000000000
  8     4.46750064353661    13.40250193060982    10.00000000000000
 12     2.97833376235774    11.91333504943095    10.00000000000000
  8     7.44583440589435     1.48916688117887    10.00000000000000
 12     5.95666752471548     0.00000000000000    10.00000000000000
  8     7.44583440589435     4.46750064353661    10.00000000000000
 12     5.95666752471548     2.97833376235774    10.00000000000000
  8     7.44583440589435     7.44583440589435    10.00000000000000
 12     5.95666752471548     5.95666752471548    10.00000000000000
  8     7.44583440589435    10.42416816825208    10.00000000000000
 12     5.95666752471548     8.93500128707321    10.00000000000000
  8     7.44583440589435    13.40250193060982    10.00000000000000
 12     5.95666752471548    11.91333504943095    10.00000000000000
  8    10.42416816825208     1.48916688117887    10.00000000000000
 12     8.93500128707321     0.00000000000000    10.00000000000000
  8    10.42416816825208     4.46750064353661    10.00000000000000
 12     8.93500128707321     2.97833376235774    10.00000000000000
  8    10.42416816825208     7.44583440589435    10.00000000000000
 12     8.93500128707321     5.95666752471548    10.00000000000000
  8    10.42416816825208    10.42416816825208    10.00000000000000
 12     8.93500128707321     8.93500128707321    10.00000000000000
  8    10.42416816825208    13.40250193060982    10.00000000000000
 12     8.93500128707321    11.91333504943095    10.00000000000000
  8    13.40250193060982     1.48916688117887    10.00000000000000
 12    11.91333504943095     0.00000000000000    10.00000000000000
  8    13.40250193060982     4.46750064353661    10.00000000000000
 12    11.91333504943095     2.97833376235774    10.00000000000000
  8    13.40250193060982     7.44583440589435    10.00000000000000
 12    11.91333504943095     5.95666752471548    10.00000000000000
  8    13.40250193060982    10.42416816825208    10.00000000000000
 12    11.91333504943095     8.93500128707321    10.00000000000000
  8    13.40250193060982    13.40250193060982    10.00000000000000
 12    11.91333504943095    11.91333504943095    10.00000000000000
 27     1.63946499865513     1.51230638562711    11.95380292981287
 27     0.83586263892660     4.61608805671091    11.72338893772230
 26     1.59795700357547     7.62575268858111    11.68342760218749
 26     0.79426573031031    10.39977841948777    11.81549948503377
 26     1.80576533631155    13.23605640774249    11.60239966143644
 27     4.85030081767337     1.51139099978892    11.44199789907144
 26     4.44586887109881     4.03178440929330    11.55149026260498
 27     4.63221687916922     6.76305066357203    11.67675247155627
 26     4.64954772949729    10.95722829789629    11.40988110218913
 26     4.44161172423683    14.30722281637379    11.50104749615918
 27     7.41861843187507     2.20093323856644    11.42092007114133
 26     7.66825143839377     4.38806295899416    11.77311957980652
 27     7.95964472757509     7.40074753207942    11.84362716140367
 26     7.44458090663144    10.74856652053188    11.96073576652522
 26     7.74806263461985    13.39144190446435    11.87353814526260
 26    10.42081644872250     1.45063438298599    11.86562544538447
 27    10.82206161891825     4.79930707036304    11.83941069811517
 26    10.26555096719850     7.68808404329368    11.46367380207557
 26    10.23105936742480    10.21219790690297    11.87340759522194
 26    10.48687343610828    13.41591900793537    11.55652440188555
 26    13.52377699992238     1.28067715973616    11.49088214683856
 26    13.40926396810525     4.47233401796844    11.95337146406320
 26    13.21931026671402     7.59131364068441    11.47870029751515
 26    13.51249148910665    10.33694074935620    11.69017227143457
 26    13.46850233019567    12.46457865193710    11.46491401881983
