SLAB
PRIMVEC
 14.89166881178869 0.00000000000000 0.00000000000000
 0.00000000000000 14.89166881178869 0.00000000000000
 0.00000000000000 0.00000000000000 41.48916688117887
PRIMCOORD
 75 1
  8     1.48916688117887     1.48916688117887    10.00000000000000
 12     0.00000000000000     0.00000000000000    10.00000000000000
  8     1.48916688117887     4.46750064353661    10.00000000000000
 12     0.00000000000000     2.97833376235774    10.00000000000000
  8     1.48916688117887     7.44583440589435    10.00000000000000
 12     0.00000000000000     5.95666752471548    10.00000000000000
  8     1.48916688117887    10.42416816825208    10.00000000000000
 12     0.00000000000000     8.93500128707321    10.00000000000000
  8     1.48916688117887    13.40250193060982    10.00000000000000
 12     0.00000000000000    11.91333504943095    10.00000000000000
  8     4.46750064353661     1.48916688117887    10.00000000000000
 12     2.97833376235774     0.00000000000000    10.00000000000000
  8     4.46750064353661     4.46750064353661    10.00000000000000
 12     2.97833376235774     2.97833376235774    10.00000000000000
  8     4.46750064353661     7.44583440589435    10.00000000000000
 12     2.97833376235774     5.95666752471548    10.00000000000000
  8     4.46750064353661    10.42416816825208    10.00000000000000
 12     2.97833376235774     8.93500128707321    10.00000000000000
  8     4.46750064353661    13.40250193060982    10.00000000000000
 12     2.97833376235774    11.91333504943095    10.00000000000000
  8     7.44583440589435     1.48916688117887    10.00000000000000
 12     5.95666752471548     0.00000000000000    10.00000000000000
  8     7.44583440589435     4.46750064353661    10.00000000000000
 12     5.95666752471548     2.97833376235774    10.00000000000000
  8     7.44583440589435     7.44583440589435    10.00000000000000
 12     5.95666752471548     5.95666752471548    10.00000000000000
  8     7.44583440589435    10.42416816825208    10.00000000000000
 12     5.95666752471548     8.93500128707321    10.00000000000000
  8     7.44583440589435    13.40250193060982    10.00000000000000
 12     5.95666752471548    11.91333504943095    10.00000000000000
  8    10.42416816825208     1.48916688117887    10.00000000000000
 12     8.93500128707321     0.00000000000000    10.00000000000000
  8    10.42416816825208     4.46750064353661    10.00000000000000
 12     8.93500128707321     2.97833376235774    10.00000000000000
  8    10.42416816825208     7.44583440589435    10.00000000000000
 12     8.93500128707321     5.95666752471548    10.00000000000000
  8    10.42416816825208    10.42416816825208    10.00000000000000
 12     8.93500128707321     8.93500128707321    10.00000000000000
  8    10.42416816825208    13.40250193060982    10.00000000000000
 12     8.93500128707321    11.91333504943095    10.00000000000000
  8    13.40250193060982     1.48916688117887    10.00000000000000
 12    11.91333504943095     0.00000000000000    10.00000000000000
  8    13.40250193060982     4.46750064353661    10.00000000000000
 12    11.91333504943095     2.97833376235774    10.00000000000000
  8    13.40250193060982     7.44583440589435    10.00000000000000
 12    11.91333504943095     5.95666752471548    10.00000000000000
  8    13.40250193060982    10.42416816825208    10.00000000000000
 12    11.91333504943095     8.93500128707321    10.00000000000000
  8    13.40250193060982    13.40250193060982    10.00000000000000
 12    11.91333504943095    11.91333504943095    10.00000000000000
 27     1.21651383422482     0.78767247024199    11.57195832403530
 27     1.30857348050410     4.51470856060871    11.44508274960493
 26     1.68845941505494     7.55195231614183    11.63733402033806
 26     1.48689828323210    10.41915128979752    11.99783128950149
 26     1.49225966756003    13.39477079188288    11.82979946617587
 27     4.64688759958476     0.94197762986702    11.47961471060827
 26     4.80237941027255     4.65277833781377    11.89937123981885
 27     4.99487720086744     7.85115958263209    11.80116747273752
 26     4.77140738302147    10.39917429354847    11.95918883337442
 26     5.44769127113373    13.31028276120388    11.60829984018604
 27     6.94539175859282     1.77093875960459    11.50694345465597
 26     7.48287549080953     4.14639276406091    11.45142870110351
 27     7.84242367145482     7.42718261978623    11.64560826650844
 26     7.27122366289160    10.98611962445183    11.76891681247785
 26     7.45120791754762    13.40014512999530    11.60969903767838
 26    11.03578719521500     1.56568030247700    11.49419009011973
 27    10.36693368517731     4.45385625646887    11.94748497415427
 26    10.37910124532351     7.52299435737164    11.86754257716905
 26     9.99205276342916     9.84093089263992    11.65938469073078
 26    10.32996550824865    13.44878762945726    11.52888552481975
 26    13.71627999017781     1.66855028333034    11.76674923973451
 26    12.55332333849444     4.41586020256043    11.33836971324646
 26    13.54661054441722     7.73859263316619    11.47412550106540
 26    12.95199025148096    10.13166372090595    11.53774217324777
 26    13.05342135023059    12.97775169828685    11.79857219857722
