SLAB
PRIMVEC
 14.89166881178869 0.00000000000000 0.00000000000000
 0.00000000000000 14.89166881178869 0.00000000000000
 0.00000000000000 0.00000000000000 41.48916688117887
PRIMCOORD
 75 1
  8     1.48916688117887     1.48916688117887    10.00000000000000
 12     0.00000000000000     0.00000000000000    10.00000000000000
  8     1.48916688117887     4.46750064353661    10.00000000000000
 12     0.00000000000000     2.97833376235774    10.00000000000000
  8     1.48916688117887     7.44583440589435    10.00000000000000
 12     0.00000000000000     5.95666752471548    10.00000000000000
  8     1.48916688117887    10.42416816825208    10.00000000000000
 12     0.00000000000000     8.93500128707321    10.00000000000000
  8     1.48916688117887    13.40250193060982    10.00000000000000
 12     0.00000000000000    11.91333504943095    10.00000000000000
  8     4.46750064353661     1.48916688117887    10.00000000000000
 12     2.97833376235774     0.00000000000000    10.00000000000000
  8     4.46750064353661     4.46750064353661    10.00000000000000
 12     2.97833376235774     2.97833376235774    10.00000000000000
  8     4.46750064353661     7.44583440589435    10.00000000000000
 12     2.97833376235774     5.95666752471548    10.00000000000000
  8     4.46750064353661    10.42416816825208    10.00000000000000
 12     2.97833376235774     8.93500128707321    10.00000000000000
  8     4.46750064353661    13.40250193060982    10.00000000000000
 12     2.97833376235774    11.91333504943095    10.00000000000000
  8     7.44583440589435     1.48916688117887    10.00000000000000
 12     5.95666752471548     0.00000000000000    10.00000000000000
  8     7.44583440589435     4.46750064353661    10.00000000000000
 12     5.95666752471548     2.97833376235774    10.00000000000000
  8     7.44583440589435     7.44583440589435    10.00000000000000
 12     5.95666752471548     5.95666752471548    10.00000000000000
  8     7.44583440589435    10.42416816825208    10.00000000000000
 12     5.95666752471548     8.93500128707321    10.00000000000000
  8     7.44583440589435    13.40250193060982    10.00000000000000
 12     5.95666752471548    11.91333504943095    10.00000000000000
  8    10.42416816825208     1.48916688117887    10.00000000000000
 12     8.93500128707321     0.00000000000000    10.00000000000000
  8    10.42416816825208     4.46750064353661    10.00000000000000
 12     8.93500128707321     2.97833376235774    10.00000000000000
  8    10.42416816825208     7.44583440589435    10.00000000000000
 12     8.93500128707321     5.95666752471548    10.00000000000000
  8    10.42416816825208    10.42416816825208    10.00000000000000
 12     8.93500128707321     8.93500128707321    10.00000000000000
  8    10.42416816825208    13.40250193060982    10.00000000000000
 12     8.93500128707321    11.91333504943095    10.00000000000000
  8    13.40250193060982     1.48916688117887    10.00000000000000
 12    11.91333504943095     0.00000000000000    10.00000000000000
  8    13.40250193060982     4.46750064353661    10.00000000000000
 12    11.91333504943095     2.97833376235774    10.00000000000000
  8    13.40250193060982     7.44583440589435    10.00000000000000
 12    11.91333504943095     5.95666752471548    10.00000000000000
  8    13.40250193060982    10.42416816825208    10.00000000000000
 12    11.91333504943095     8.93500128707321    10.00000000000000
  8    13.40250193060982    13.40250193060982    10.00000000000000
 12    11.91333504943095    11.91333504943095    10.00000000000000
 27     1.92568450092117     1.55027967870994    11.62494773666608
 27     1.47171227462952     4.24632909397597    11.46598902170235
 26     1.41110618027265     7.50092084944163    11.63726117497931
 26     1.34169703138472    10.50030064256653    11.80575433150055
 26     1.42122141343420    13.43848785732441    11.91493834153993
 27     4.60762584510939     1.80626920110651    11.84655898153186
 26     4.29963348912575     4.39858680646599    11.59124674064718
 27     5.17196770012831     7.08007495079351    11.54587221077017
 26     4.37235854393548     9.74966661302530    11.48434266834766
 26     4.12599408308970    13.28836132408149    11.76504830633471
 27     6.57021461647245     1.48474403942642    11.52379751129255
 26     7.13134168554377     4.37004639777255    11.53962402913699
 27     7.40156042026183     6.84453255630010    11.72688084045920
 26     6.55662121278239    10.31082965222512    11.45395447866505
 26     7.87421027796594    12.68415012527984    11.71114326584120
 26    10.38071797315666     1.37360811124479    11.65877529984040
 27    10.42929393299543     4.39681259908094    11.70537676158575
 26    10.41720726689187     7.44534724573488    11.74543404663741
 26    10.01581267463017    10.12252977352742    11.63841817541685
 26    10.50386076818749    14.28032263119898    11.39667196081909
 26    13.52282963876663     2.30026692178586    11.52823318617498
 26    13.44167502031793     4.39661520169713    11.68682304030208
 26    13.25432844191302     7.48448656842794    11.73696916216012
 26    13.09827164620066    10.47148831343654    11.79076048025146
 26    13.68074384476147    13.64852268610567    11.83969937571189
