SLAB
PRIMVEC
 14.89166881178869 0.00000000000000 0.00000000000000
 0.00000000000000 14.89166881178869 0.00000000000000
 0.00000000000000 0.00000000000000 41.48916688117887
PRIMCOORD
 75 1
  8     1.48916688117887     1.48916688117887    10.00000000000000
 12     0.00000000000000     0.00000000000000    10.00000000000000
  8     1.48916688117887     4.46750064353661    10.00000000000000
 12     0.00000000000000     2.97833376235774    10.00000000000000
  8     1.48916688117887     7.44583440589435    10.00000000000000
 12     0.00000000000000     5.95666752471548    10.00000000000000
  8     1.48916688117887    10.42416816825208    10.00000000000000
 12     0.00000000000000     8.93500128707321    10.00000000000000
  8     1.48916688117887    13.40250193060982    10.00000000000000
 12     0.00000000000000    11.91333504943095    10.00000000000000
  8     4.46750064353661     1.48916688117887    10.00000000000000
 12     2.97833376235774     0.00000000000000    10.00000000000000
  8     4.46750064353661     4.46750064353661    10.00000000000000
 12     2.97833376235774     2.97833376235774    10.00000000000000
  8     4.46750064353661     7.44583440589435    10.00000000000000
 12     2.97833376235774     5.95666752471548    10.00000000000000
  8     4.46750064353661    10.42416816825208    10.00000000000000
 12     2.97833376235774     8.93500128707321    10.00000000000000
  8     4.46750064353661    13.40250193060982    10.00000000000000
 12     2.97833376235774    11.91333504943095    10.00000000000000
  8     7.44583440589435     1.48916688117887    10.00000000000000
 12     5.95666752471548     0.00000000000000    10.00000000000000
  8     7.44583440589435     4.46750064353661    10.00000000000000
 12     5.95666752471548     2.97833376235774    10.00000000000000
  8     7.44583440589435     7.44583440589435    10.00000000000000
 12     5.95666752471548     5.95666752471548    10.00000000000000
  8     7.44583440589435    10.42416816825208    10.00000000000000
 12     5.95666752471548     8.93500128707321    10.00000000000000
  8     7.44583440589435    13.40250193060982    10.00000000000000
 12     5.95666752471548    11.91333504943095    10.00000000000000
  8    10.42416816825208     1.48916688117887    10.00000000000000
 12     8.93500128707321     0.00000000000000    10.00000000000000
  8    10.42416816825208     4.46750064353661    10.00000000000000
 12     8.93500128707321     2.97833376235774    10.00000000000000
  8    10.42416816825208     7.44583440589435    10.00000000000000
 12     8.93500128707321     5.95666752471548    10.00000000000000
  8    10.42416816825208    10.42416816825208    10.00000000000000
 12     8.93500128707321     8.93500128707321    10.00000000000000
  8    10.42416816825208    13.40250193060982    10.00000000000000
 12     8.93500128707321    11.91333504943095    10.00000000000000
  8    13.40250193060982     1.48916688117887    10.00000000000000
 12    11.91333504943095     0.00000000000000    10.00000000000000
  8    13.40250193060982     4.46750064353661    10.00000000000000
 12    11.91333504943095     2.97833376235774    10.00000000000000
  8    13.40250193060982     7.44583440589435    10.00000000000000
 12    11.91333504943095     5.95666752471548    10.00000000000000
  8    13.40250193060982    10.42416816825208    10.00000000000000
 12    11.91333504943095     8.93500128707321    10.00000000000000
  8    13.40250193060982    13.40250193060982    10.00000000000000
 12    11.91333504943095    11.91333504943095    10.00000000000000
 27     1.60510750991034     1.46915818541764    11.45490098546384
 27     1.61636668455970     4.50664514086915    11.68086629241373
 26     1.77883682685866     7.96966955989485    11.80313276296302
 26     0.76014582491068    10.61825634269315    11.41449782663165
 26     1.73825607008925    13.59873008714164    11.69015592740842
 27     4.41587936860823     1.28910176841028    11.90974334571017
 26     4.45012843403485     4.50370302304734    11.73701539603590
 27     4.45079121304009     7.77095185334335    11.57182462280811
 26     4.50123653440693    10.30816382141454    11.96335205832245
 26     4.04858280538115    13.02191256843754    11.43108538065277
 27     7.36376233085877     0.67389731454081    11.67881023294395
 26     7.47308942373478     4.78488191034113    11.61783044760930
 27     7.46134395222316     7.29856056586232    11.88748308509150
 26     7.67313853761712    10.51971507146947    11.51675007631129
 26     7.79272886975017    13.56626989617085    11.94524336309473
 26    10.13982755624047     1.03449123935946    11.50765204740696
 27    10.49625656113592     4.52999931813902    11.99130690076708
 26    10.98241363256235     7.34615443508033    11.46284769280502
 26    10.06037331200184    10.14682495044311    11.49482103849474
 26     9.92208510551319    13.14948730148694    11.79311099764766
 26    12.66674245970126     1.58307056255168    11.41406307709209
 26    13.72152231077804     4.15462922046255    11.78375919238549
 26    13.88156992396334     7.44343326850379    11.84158641087749
 26    13.41155939253774    10.40660533085739    11.68829733297309
 26    13.28123624236748    13.33183589754708    11.83634636309871
