SLAB
PRIMVEC
 14.89166881178869 0.00000000000000 0.00000000000000
 0.00000000000000 14.89166881178869 0.00000000000000
 0.00000000000000 0.00000000000000 41.48916688117887
PRIMCOORD
 75 1
  8     1.48916688117887     1.48916688117887    10.00000000000000
 12     0.00000000000000     0.00000000000000    10.00000000000000
  8     1.48916688117887     4.46750064353661    10.00000000000000
 12     0.00000000000000     2.97833376235774    10.00000000000000
  8     1.48916688117887     7.44583440589435    10.00000000000000
 12     0.00000000000000     5.95666752471548    10.00000000000000
  8     1.48916688117887    10.42416816825208    10.00000000000000
 12     0.00000000000000     8.93500128707321    10.00000000000000
  8     1.48916688117887    13.40250193060982    10.00000000000000
 12     0.00000000000000    11.91333504943095    10.00000000000000
  8     4.46750064353661     1.48916688117887    10.00000000000000
 12     2.97833376235774     0.00000000000000    10.00000000000000
  8     4.46750064353661     4.46750064353661    10.00000000000000
 12     2.97833376235774     2.97833376235774    10.00000000000000
  8     4.46750064353661     7.44583440589435    10.00000000000000
 12     2.97833376235774     5.95666752471548    10.00000000000000
  8     4.46750064353661    10.42416816825208    10.00000000000000
 12     2.97833376235774     8.93500128707321    10.00000000000000
  8     4.46750064353661    13.40250193060982    10.00000000000000
 12     2.97833376235774    11.91333504943095    10.00000000000000
  8     7.44583440589435     1.48916688117887    10.00000000000000
 12     5.95666752471548     0.00000000000000    10.00000000000000
  8     7.44583440589435     4.46750064353661    10.00000000000000
 12     5.95666752471548     2.97833376235774    10.00000000000000
  8     7.44583440589435     7.44583440589435    10.00000000000000
 12     5.95666752471548     5.95666752471548    10.00000000000000
  8     7.44583440589435    10.42416816825208    10.00000000000000
 12     5.95666752471548     8.93500128707321    10.00000000000000
  8     7.44583440589435    13.40250193060982    10.00000000000000
 12     5.95666752471548    11.91333504943095    10.00000000000000
  8    10.42416816825208     1.48916688117887    10.00000000000000
 12     8.93500128707321     0.00000000000000    10.00000000000000
  8    10.42416816825208     4.46750064353661    10.00000000000000
 12     8.93500128707321     2.97833376235774    10.00000000000000
  8    10.42416816825208     7.44583440589435    10.00000000000000
 12     8.93500128707321     5.95666752471548    10.00000000000000
  8    10.42416816825208    10.42416816825208    10.00000000000000
 12     8.93500128707321     8.93500128707321    10.00000000000000
  8    10.42416816825208    13.40250193060982    10.00000000000000
 12     8.93500128707321    11.91333504943095    10.00000000000000
  8    13.40250193060982     1.48916688117887    10.00000000000000
 12    11.91333504943095     0.00000000000000    10.00000000000000
  8    13.40250193060982     4.46750064353661    10.00000000000000
 12    11.91333504943095     2.97833376235774    10.00000000000000
  8    13.40250193060982     7.44583440589435    10.00000000000000
 12    11.91333504943095     5.95666752471548    10.00000000000000
  8    13.40250193060982    10.42416816825208    10.00000000000000
 12    11.91333504943095     8.93500128707321    10.00000000000000
  8    13.40250193060982    13.40250193060982    10.00000000000000
 12    11.91333504943095    11.91333504943095    10.00000000000000
 27     0.88720449797816     1.06839588636106    11.64914872148204
 27     1.64261242458075     4.00155101857743    11.61588647433263
 26     1.72933067582664     7.40437849239878    11.67747765092118
 26     1.73027350732950    10.57338418727831    11.65680605998405
 26     1.70859282666097    12.97745655725423    11.69498630667168
 27     3.75544954823597     1.93197141457076    11.66578783337830
 26     4.69846084540207     5.09302647519317    11.79299759505933
 27     4.17289579836515     7.66579005728278    11.50317433814854
 26     4.46502103222121    10.40121738691615    11.86182742305026
 26     5.42004443953888    13.31152018343952    11.45170812676431
 27     7.20053712517322     1.93596917599661    11.80526879228373
 26     7.86954616237163     4.62736249659513    11.63964582163712
 27     8.18714631535895     7.96312272446382    11.61800958485104
 26     7.61282238105431    10.97414719221049    11.41837706455107
 26     7.58775919240581    13.44349371329506    11.91998358438517
 26    10.96803011163179     1.22275110803554    11.50970915512649
 27    10.33517961159565     4.73571988442454    11.59437145822275
 26    10.47490442404384     8.02736237741393    11.40370097910050
 26    10.49874125432770    10.75619093039296    11.84697124846728
 26    11.25691376556277    13.23131511391200    11.59833269168103
 26    13.31478152225801     1.67962834898206    11.74995151133171
 26    13.01022916142141     3.86238851776153    11.57563582437054
 26    13.68719268004527     7.77436459541822    11.91010250308599
 26    13.97388216598387    10.83824772812511    11.69486335777335
 26    13.62334888126013    13.43455078857368    11.80532946932583
