SLAB
PRIMVEC
 14.89166881178869 0.00000000000000 0.00000000000000
 0.00000000000000 14.89166881178869 0.00000000000000
 0.00000000000000 0.00000000000000 41.48916688117887
PRIMCOORD
 75 1
  8     1.48916688117887     1.48916688117887    10.00000000000000
 12     0.00000000000000     0.00000000000000    10.00000000000000
  8     1.48916688117887     4.46750064353661    10.00000000000000
 12     0.00000000000000     2.97833376235774    10.00000000000000
  8     1.48916688117887     7.44583440589435    10.00000000000000
 12     0.00000000000000     5.95666752471548    10.00000000000000
  8     1.48916688117887    10.42416816825208    10.00000000000000
 12     0.00000000000000     8.93500128707321    10.00000000000000
  8     1.48916688117887    13.40250193060982    10.00000000000000
 12     0.00000000000000    11.91333504943095    10.00000000000000
  8     4.46750064353661     1.48916688117887    10.00000000000000
 12     2.97833376235774     0.00000000000000    10.00000000000000
  8     4.46750064353661     4.46750064353661    10.00000000000000
 12     2.97833376235774     2.97833376235774    10.00000000000000
  8     4.46750064353661     7.44583440589435    10.00000000000000
 12     2.97833376235774     5.95666752471548    10.00000000000000
  8     4.46750064353661    10.42416816825208    10.00000000000000
 12     2.97833376235774     8.93500128707321    10.00000000000000
  8     4.46750064353661    13.40250193060982    10.00000000000000
 12     2.97833376235774    11.91333504943095    10.00000000000000
  8     7.44583440589435     1.48916688117887    10.00000000000000
 12     5.95666752471548     0.00000000000000    10.00000000000000
  8     7.44583440589435     4.46750064353661    10.00000000000000
 12     5.95666752471548     2.97833376235774    10.00000000000000
  8     7.44583440589435     7.44583440589435    10.00000000000000
 12     5.95666752471548     5.95666752471548    10.00000000000000
  8     7.44583440589435    10.42416816825208    10.00000000000000
 12     5.95666752471548     8.93500128707321    10.00000000000000
  8     7.44583440589435    13.40250193060982    10.00000000000000
 12     5.95666752471548    11.91333504943095    10.00000000000000
  8    10.42416816825208     1.48916688117887    10.00000000000000
 12     8.93500128707321     0.00000000000000    10.00000000000000
  8    10.42416816825208     4.46750064353661    10.00000000000000
 12     8.93500128707321     2.97833376235774    10.00000000000000
  8    10.42416816825208     7.44583440589435    10.00000000000000
 12     8.93500128707321     5.95666752471548    10.00000000000000
  8    10.42416816825208    10.42416816825208    10.00000000000000
 12     8.93500128707321     8.93500128707321    10.00000000000000
  8    10.42416816825208    13.40250193060982    10.00000000000000
 12     8.93500128707321    11.91333504943095    10.00000000000000
  8    13.40250193060982     1.48916688117887    10.00000000000000
 12    11.91333504943095     0.00000000000000    10.00000000000000
  8    13.40250193060982     4.46750064353661    10.00000000000000
 12    11.91333504943095     2.97833376235774    10.00000000000000
  8    13.40250193060982     7.44583440589435    10.00000000000000
 12    11.91333504943095     5.95666752471548    10.00000000000000
  8    13.40250193060982    10.42416816825208    10.00000000000000
 12    11.91333504943095     8.93500128707321    10.00000000000000
  8    13.40250193060982    13.40250193060982    10.00000000000000
 12    11.91333504943095    11.91333504943095    10.00000000000000
 27     1.46980081234125     1.15665764936854    11.85838460879516
 27     1.61487994783808     3.92380796371824    11.83836664504025
 26     1.42395423288321     7.42106154499560    11.96300175474184
 26     1.71101823432743    11.31714992503495    11.66326281115672
 26     1.67991148823973    13.31249103337565    11.52689094516346
 27     3.83213656982043     1.25708250371606    11.37699430210849
 26     4.42862925045176     4.14817274455982    11.90793855363432
 27     5.02318523864925     7.25052206958792    11.55069414898328
 26     4.44218151850497    10.40956054089277    11.91423624924993
 26     3.98993492262276    13.67998953382085    11.75303950193976
 27     7.01761261558988     1.77815226045278    11.65117721444554
 26     7.31941346101806     4.43838176714415    11.85176386747658
 27     7.06234876987966     7.59005293093997    11.43486578498499
 26     7.42222858910608    11.01313165166136    11.87165389314845
 26     6.80010556997320    13.72842471724699    11.80339406121812
 26    10.63463245792698     1.18831111180581    11.84149177767987
 27    10.55426826610862     4.39486402249348    11.50428771663050
 26    10.13115155465528     7.54968529651281    11.86619972189538
 26    10.85125285469692    10.11508840497234    11.45053340497781
 26    10.70961391916508    13.18657630435188    11.50820426351380
 26    13.05380570140201     0.72238523465041    11.56868701378450
 26    13.92714207419541     4.96876858566607    11.76918640862194
 26    13.86397190611777     7.04792766044550    11.59043315169791
 26    13.20186006691114    10.98437104236675    11.75702287113737
 26    12.96122796083719    13.20908002473886    11.60659410379153
