SLAB
PRIMVEC
 14.89166881178869 0.00000000000000 0.00000000000000
 0.00000000000000 14.89166881178869 0.00000000000000
 0.00000000000000 0.00000000000000 41.48916688117887
PRIMCOORD
 75 1
  8     1.48916688117887     1.48916688117887    10.00000000000000
 12     0.00000000000000     0.00000000000000    10.00000000000000
  8     1.48916688117887     4.46750064353661    10.00000000000000
 12     0.00000000000000     2.97833376235774    10.00000000000000
  8     1.48916688117887     7.44583440589435    10.00000000000000
 12     0.00000000000000     5.95666752471548    10.00000000000000
  8     1.48916688117887    10.42416816825208    10.00000000000000
 12     0.00000000000000     8.93500128707321    10.00000000000000
  8     1.48916688117887    13.40250193060982    10.00000000000000
 12     0.00000000000000    11.91333504943095    10.00000000000000
  8     4.46750064353661     1.48916688117887    10.00000000000000
 12     2.97833376235774     0.00000000000000    10.00000000000000
  8     4.46750064353661     4.46750064353661    10.00000000000000
 12     2.97833376235774     2.97833376235774    10.00000000000000
  8     4.46750064353661     7.44583440589435    10.00000000000000
 12     2.97833376235774     5.95666752471548    10.00000000000000
  8     4.46750064353661    10.42416816825208    10.00000000000000
 12     2.97833376235774     8.93500128707321    10.00000000000000
  8     4.46750064353661    13.40250193060982    10.00000000000000
 12     2.97833376235774    11.91333504943095    10.00000000000000
  8     7.44583440589435     1.48916688117887    10.00000000000000
 12     5.95666752471548     0.00000000000000    10.00000000000000
  8     7.44583440589435     4.46750064353661    10.00000000000000
 12     5.95666752471548     2.97833376235774    10.00000000000000
  8     7.44583440589435     7.44583440589435    10.00000000000000
 12     5.95666752471548     5.95666752471548    10.00000000000000
  8     7.44583440589435    10.42416816825208    10.00000000000000
 12     5.95666752471548     8.93500128707321    10.00000000000000
  8     7.44583440589435    13.40250193060982    10.00000000000000
 12     5.95666752471548    11.91333504943095    10.00000000000000
  8    10.42416816825208     1.48916688117887    10.00000000000000
 12     8.93500128707321     0.00000000000000    10.00000000000000
  8    10.42416816825208     4.46750064353661    10.00000000000000
 12     8.93500128707321     2.97833376235774    10.00000000000000
  8    10.42416816825208     7.44583440589435    10.00000000000000
 12     8.93500128707321     5.95666752471548    10.00000000000000
  8    10.42416816825208    10.42416816825208    10.00000000000000
 12     8.93500128707321     8.93500128707321    10.00000000000000
  8    10.42416816825208    13.40250193060982    10.00000000000000
 12     8.93500128707321    11.91333504943095    10.00000000000000
  8    13.40250193060982     1.48916688117887    10.00000000000000
 12    11.91333504943095     0.00000000000000    10.00000000000000
  8    13.40250193060982     4.46750064353661    10.00000000000000
 12    11.91333504943095     2.97833376235774    10.00000000000000
  8    13.40250193060982     7.44583440589435    10.00000000000000
 12    11.91333504943095     5.95666752471548    10.00000000000000
  8    13.40250193060982    10.42416816825208    10.00000000000000
 12    11.91333504943095     8.93500128707321    10.00000000000000
  8    13.40250193060982    13.40250193060982    10.00000000000000
 12    11.91333504943095    11.91333504943095    10.00000000000000
 27     2.25960703717976     1.29028916256127    11.42856296258329
 27     2.10757847848091     4.68750230449965    11.50586118863645
 26     1.96333616938501     7.63186839984629    11.58044797746630
 26     1.78409841785392    10.63433662226482    11.66803055176278
 26     1.55345212681035    13.46291698320690    11.67656454874925
 27     4.86614785356208     1.32318882140626    11.78125919815135
 26     4.79751693253449     4.62729873674536    11.56581965244304
 27     4.27872263796181     6.78722397414537    11.79317919848189
 26     3.87505208104572    10.35379999571607    11.37125291536320
 26     4.51754172295541    13.41051173840543    11.87348237978686
 27     6.79436662392172     1.53649008987624    11.77144263861654
 26     7.77155654873549     4.49399263525395    11.72122859019958
 27     7.97084016164308     7.39190440924972    11.50767410582332
 26     7.48869065782719    10.36912251379678    11.64090195847474
 26     7.14018018325618    13.85792112541798    11.45495928201819
 26    10.60106826797467     1.80732450886597    11.86060755776856
 27    10.50083238977997     4.67283526847353    11.88345224467857
 26    10.21051076808478     7.15565573690201    11.74703973781841
 26    10.32474222320262    10.27296459580973    11.86859101943193
 26     9.62910181755600    13.41531263267305    11.32945891857791
 26    12.89405957865352     0.87327256877572    11.69742825171462
 26    12.82361096086018     4.98707740350960    11.68302660860980
 26    13.04239875360068     6.98932885270766    11.82453529107649
 26    14.36814799256138    10.58483990592664    11.54728501035217
 26    13.30792775781952    13.38845339828501    11.98371748236585
