SLAB
PRIMVEC
 14.89166881178869 0.00000000000000 0.00000000000000
 0.00000000000000 14.89166881178869 0.00000000000000
 0.00000000000000 0.00000000000000 41.48916688117887
PRIMCOORD
 75 1
  8     1.48916688117887     1.48916688117887    10.00000000000000
 12     0.00000000000000     0.00000000000000    10.00000000000000
  8     1.48916688117887     4.46750064353661    10.00000000000000
 12     0.00000000000000     2.97833376235774    10.00000000000000
  8     1.48916688117887     7.44583440589435    10.00000000000000
 12     0.00000000000000     5.95666752471548    10.00000000000000
  8     1.48916688117887    10.42416816825208    10.00000000000000
 12     0.00000000000000     8.93500128707321    10.00000000000000
  8     1.48916688117887    13.40250193060982    10.00000000000000
 12     0.00000000000000    11.91333504943095    10.00000000000000
  8     4.46750064353661     1.48916688117887    10.00000000000000
 12     2.97833376235774     0.00000000000000    10.00000000000000
  8     4.46750064353661     4.46750064353661    10.00000000000000
 12     2.97833376235774     2.97833376235774    10.00000000000000
  8     4.46750064353661     7.44583440589435    10.00000000000000
 12     2.97833376235774     5.95666752471548    10.00000000000000
  8     4.46750064353661    10.42416816825208    10.00000000000000
 12     2.97833376235774     8.93500128707321    10.00000000000000
  8     4.46750064353661    13.40250193060982    10.00000000000000
 12     2.97833376235774    11.91333504943095    10.00000000000000
  8     7.44583440589435     1.48916688117887    10.00000000000000
 12     5.95666752471548     0.00000000000000    10.00000000000000
  8     7.44583440589435     4.46750064353661    10.00000000000000
 12     5.95666752471548     2.97833376235774    10.00000000000000
  8     7.44583440589435     7.44583440589435    10.00000000000000
 12     5.95666752471548     5.95666752471548    10.00000000000000
  8     7.44583440589435    10.42416816825208    10.00000000000000
 12     5.95666752471548     8.93500128707321    10.00000000000000
  8     7.44583440589435    13.40250193060982    10.00000000000000
 12     5.95666752471548    11.91333504943095    10.00000000000000
  8    10.42416816825208     1.48916688117887    10.00000000000000
 12     8.93500128707321     0.00000000000000    10.00000000000000
  8    10.42416816825208     4.46750064353661    10.00000000000000
 12     8.93500128707321     2.97833376235774    10.00000000000000
  8    10.42416816825208     7.44583440589435    10.00000000000000
 12     8.93500128707321     5.95666752471548    10.00000000000000
  8    10.42416816825208    10.42416816825208    10.00000000000000
 12     8.93500128707321     8.93500128707321    10.00000000000000
  8    10.42416816825208    13.40250193060982    10.00000000000000
 12     8.93500128707321    11.91333504943095    10.00000000000000
  8    13.40250193060982     1.48916688117887    10.00000000000000
 12    11.91333504943095     0.00000000000000    10.00000000000000
  8    13.40250193060982     4.46750064353661    10.00000000000000
 12    11.91333504943095     2.97833376235774    10.00000000000000
  8    13.40250193060982     7.44583440589435    10.00000000000000
 12    11.91333504943095     5.95666752471548    10.00000000000000
  8    13.40250193060982    10.42416816825208    10.00000000000000
 12    11.91333504943095     8.93500128707321    10.00000000000000
  8    13.40250193060982    13.40250193060982    10.00000000000000
 12    11.91333504943095    11.91333504943095    10.00000000000000
 27     1.47305777937417     1.51008435998040    11.62102087108946
 27     1.36259788165660     5.12755139830232    11.75918670649451
 26     1.86094828139055     7.44384944716407    11.69496878019968
 26     1.92826485879567    10.04986553878123    11.75588760268489
 26     1.47580352297300    13.64634578882426    11.51590287103835
 27     4.54431216886976     1.30718678386245    11.91101608318630
 26     4.64693227105456     4.14641950029224    11.46633916397031
 27     4.63729940437539     7.50728847960659    11.98064714187670
 26     4.93435346979601    10.56687012171125    11.62294506103748
 26     5.37093472507740    13.30928823983004    11.65207137300079
 27     7.20553881909691     2.07902312655621    11.46269726182964
 26     7.40345826961817     4.55103207269208    11.80682322963598
 27     6.89942222103428     7.10286431327047    11.60393048836010
 26     7.58261536412050    11.12806794107306    11.56121819827021
 26     7.64026182284262    13.10575949759210    11.94205115407238
 26    10.41222065149375     1.48085344900629    11.86482134742934
 27    10.32329197642055     3.79499383925700    11.66440959276496
 26     9.86982581871458     7.92017464526128    11.57183607318595
 26    10.15218595318266    10.15033090904608    11.74474026819238
 26    10.42812545544680    13.47453085608244    11.68407875606679
 26    14.02896455489615     1.50057385605153    11.54726196560259
 26    13.00847482913101     4.28427120423869    11.90303521573372
 26    12.37785655697441     7.43805503440825    11.34632922574297
 26    14.22612948500400    10.50193552510478    11.41675673745557
 26    13.51895546360743    13.52223480493921    11.61290058236062
