SLAB
PRIMVEC
 14.89166881178869 0.00000000000000 0.00000000000000
 0.00000000000000 14.89166881178869 0.00000000000000
 0.00000000000000 0.00000000000000 41.48916688117887
PRIMCOORD
 75 1
  8     1.48916688117887     1.48916688117887    10.00000000000000
 12     0.00000000000000     0.00000000000000    10.00000000000000
  8     1.48916688117887     4.46750064353661    10.00000000000000
 12     0.00000000000000     2.97833376235774    10.00000000000000
  8     1.48916688117887     7.44583440589435    10.00000000000000
 12     0.00000000000000     5.95666752471548    10.00000000000000
  8     1.48916688117887    10.42416816825208    10.00000000000000
 12     0.00000000000000     8.93500128707321    10.00000000000000
  8     1.48916688117887    13.40250193060982    10.00000000000000
 12     0.00000000000000    11.91333504943095    10.00000000000000
  8     4.46750064353661     1.48916688117887    10.00000000000000
 12     2.97833376235774     0.00000000000000    10.00000000000000
  8     4.46750064353661     4.46750064353661    10.00000000000000
 12     2.97833376235774     2.97833376235774    10.00000000000000
  8     4.46750064353661     7.44583440589435    10.00000000000000
 12     2.97833376235774     5.95666752471548    10.00000000000000
  8     4.46750064353661    10.42416816825208    10.00000000000000
 12     2.97833376235774     8.93500128707321    10.00000000000000
  8     4.46750064353661    13.40250193060982    10.00000000000000
 12     2.97833376235774    11.91333504943095    10.00000000000000
  8     7.44583440589435     1.48916688117887    10.00000000000000
 12     5.95666752471548     0.00000000000000    10.00000000000000
  8     7.44583440589435     4.46750064353661    10.00000000000000
 12     5.95666752471548     2.97833376235774    10.00000000000000
  8     7.44583440589435     7.44583440589435    10.00000000000000
 12     5.95666752471548     5.95666752471548    10.00000000000000
  8     7.44583440589435    10.42416816825208    10.00000000000000
 12     5.95666752471548     8.93500128707321    10.00000000000000
  8     7.44583440589435    13.40250193060982    10.00000000000000
 12     5.95666752471548    11.91333504943095    10.00000000000000
  8    10.42416816825208     1.48916688117887    10.00000000000000
 12     8.93500128707321     0.00000000000000    10.00000000000000
  8    10.42416816825208     4.46750064353661    10.00000000000000
 12     8.93500128707321     2.97833376235774    10.00000000000000
  8    10.42416816825208     7.44583440589435    10.00000000000000
 12     8.93500128707321     5.95666752471548    10.00000000000000
  8    10.42416816825208    10.42416816825208    10.00000000000000
 12     8.93500128707321     8.93500128707321    10.00000000000000
  8    10.42416816825208    13.40250193060982    10.00000000000000
 12     8.93500128707321    11.91333504943095    10.00000000000000
  8    13.40250193060982     1.48916688117887    10.00000000000000
 12    11.91333504943095     0.00000000000000    10.00000000000000
  8    13.40250193060982     4.46750064353661    10.00000000000000
 12    11.91333504943095     2.97833376235774    10.00000000000000
  8    13.40250193060982     7.44583440589435    10.00000000000000
 12    11.91333504943095     5.95666752471548    10.00000000000000
  8    13.40250193060982    10.42416816825208    10.00000000000000
 12    11.91333504943095     8.93500128707321    10.00000000000000
  8    13.40250193060982    13.40250193060982    10.00000000000000
 12    11.91333504943095    11.91333504943095    10.00000000000000
 27     1.67170060056044     1.34683579216232    11.56955610374074
 27     2.14545363147850     4.58806690518462    11.57592795873169
 26     1.99818528531151     7.74201714035701    11.66954068092831
 26     1.31988619982760    11.34774641889590    11.48665926724420
 26     1.65514998472038    13.32503870357082    11.66196863244144
 27     4.01711199549959     1.86809232346970    11.81663406407608
 26     4.51340140226619     4.49340468976065    11.68953116747224
 27     4.16150330034275     7.40207589080619    11.66025682912424
 26     4.69170839247442    10.88123280137859    11.90752187220630
 26     4.90043850582587    13.30887072006217    11.89149978786427
 27     7.41086156373901     1.76851832367133    11.55159879450116
 26     7.64762002761784     3.85486857770892    11.74029322628702
 27     7.51294434949936     7.04991652919822    11.90570564485205
 26     7.75853898732897    10.31150809614345    11.64090216181357
 26     7.35674463598642    13.84512586713600    11.71310415528223
 26    10.39798047048789     1.27653010019127    11.93044668133298
 27     9.99979847424475     4.62586448137465    11.81532219691427
 26    10.31619866155005     7.92536530387642    11.78465799925972
 26     9.94709284755436    10.75843449854579    11.41292140276448
 26    10.20889196751038    13.35665842531560    11.76196676431004
 26    12.34193720556194     1.64205726416223    11.49161726309208
 26    13.74994747356310     4.08007739812756    11.80412151398714
 26    13.92012509184490     7.52938842769159    11.60381846192655
 26    13.64764263193612    10.23962797436133    11.62372420441248
 26    13.52149494085409    12.95429978799973    11.52369949494055
