SLAB
PRIMVEC
 14.89166881178869 0.00000000000000 0.00000000000000
 0.00000000000000 14.89166881178869 0.00000000000000
 0.00000000000000 0.00000000000000 41.48916688117887
PRIMCOORD
 75 1
  8     1.48916688117887     1.48916688117887    10.00000000000000
 12     0.00000000000000     0.00000000000000    10.00000000000000
  8     1.48916688117887     4.46750064353661    10.00000000000000
 12     0.00000000000000     2.97833376235774    10.00000000000000
  8     1.48916688117887     7.44583440589435    10.00000000000000
 12     0.00000000000000     5.95666752471548    10.00000000000000
  8     1.48916688117887    10.42416816825208    10.00000000000000
 12     0.00000000000000     8.93500128707321    10.00000000000000
  8     1.48916688117887    13.40250193060982    10.00000000000000
 12     0.00000000000000    11.91333504943095    10.00000000000000
  8     4.46750064353661     1.48916688117887    10.00000000000000
 12     2.97833376235774     0.00000000000000    10.00000000000000
  8     4.46750064353661     4.46750064353661    10.00000000000000
 12     2.97833376235774     2.97833376235774    10.00000000000000
  8     4.46750064353661     7.44583440589435    10.00000000000000
 12     2.97833376235774     5.95666752471548    10.00000000000000
  8     4.46750064353661    10.42416816825208    10.00000000000000
 12     2.97833376235774     8.93500128707321    10.00000000000000
  8     4.46750064353661    13.40250193060982    10.00000000000000
 12     2.97833376235774    11.91333504943095    10.00000000000000
  8     7.44583440589435     1.48916688117887    10.00000000000000
 12     5.95666752471548     0.00000000000000    10.00000000000000
  8     7.44583440589435     4.46750064353661    10.00000000000000
 12     5.95666752471548     2.97833376235774    10.00000000000000
  8     7.44583440589435     7.44583440589435    10.00000000000000
 12     5.95666752471548     5.95666752471548    10.00000000000000
  8     7.44583440589435    10.42416816825208    10.00000000000000
 12     5.95666752471548     8.93500128707321    10.00000000000000
  8     7.44583440589435    13.40250193060982    10.00000000000000
 12     5.95666752471548    11.91333504943095    10.00000000000000
  8    10.42416816825208     1.48916688117887    10.00000000000000
 12     8.93500128707321     0.00000000000000    10.00000000000000
  8    10.42416816825208     4.46750064353661    10.00000000000000
 12     8.93500128707321     2.97833376235774    10.00000000000000
  8    10.42416816825208     7.44583440589435    10.00000000000000
 12     8.93500128707321     5.95666752471548    10.00000000000000
  8    10.42416816825208    10.42416816825208    10.00000000000000
 12     8.93500128707321     8.93500128707321    10.00000000000000
  8    10.42416816825208    13.40250193060982    10.00000000000000
 12     8.93500128707321    11.91333504943095    10.00000000000000
  8    13.40250193060982     1.48916688117887    10.00000000000000
 12    11.91333504943095     0.00000000000000    10.00000000000000
  8    13.40250193060982     4.46750064353661    10.00000000000000
 12    11.91333504943095     2.97833376235774    10.00000000000000
  8    13.40250193060982     7.44583440589435    10.00000000000000
 12    11.91333504943095     5.95666752471548    10.00000000000000
  8    13.40250193060982    10.42416816825208    10.00000000000000
 12    11.91333504943095     8.93500128707321    10.00000000000000
  8    13.40250193060982    13.40250193060982    10.00000000000000
 12    11.91333504943095    11.91333504943095    10.00000000000000
 27     1.47459636899117     0.88242259414259    11.80790253671223
 27     1.47340836077410     4.57458107704112    11.95908631361425
 26     1.80809230929500     7.40515097179967    11.77754116132689
 26     1.50926535785045    11.07525579880759    11.47644969404466
 26     1.01702626278649    13.51015266826727    11.79654934003855
 27     4.46639222077301     1.47964172524921    11.72950722370020
 26     4.67430012007839     4.42073565769636    11.57810964464127
 27     4.64732520390451     8.27783935955852    11.59703638221478
 26     4.39150372114843    10.76655320224139    11.73182468710681
 26     4.42489923689442    14.04442405814546    11.54576538041912
 27     7.07890672238247     1.99352557391232    11.51770418749051
 26     7.98870990769288     4.39047179511576    11.88407625519054
 27     7.77987908581089     7.33247944333473    11.79693345979360
 26     7.31617462375101     9.84664083452685    11.40513953267615
 26     7.16531260038536    13.56709825785408    11.80343080386893
 26    10.37063498300053     2.32140037232513    11.73803572259790
 27    10.35549303551079     4.32816177422898    11.50279577064147
 26    10.21507562865234     7.03073296899497    11.51250948224616
 26    10.53702005523050     9.91585550808772    11.56547808994229
 26    10.54277758496579    13.64943999542331    11.61941461409999
 26    14.08172661434935     1.58551507142810    11.59212482541512
 26    13.18078742225026     4.73523873967009    11.75236570145458
 26    13.77521555810681     7.40798528024736    11.51556542808546
 26    12.80400083879877    10.23181677517551    11.61667123664769
 26    13.27134230238437    13.29996119265029    11.57935963652796
