SLAB
PRIMVEC
 14.89166881178869 0.00000000000000 0.00000000000000
 0.00000000000000 14.89166881178869 0.00000000000000
 0.00000000000000 0.00000000000000 41.48916688117887
PRIMCOORD
 75 1
  8     1.48916688117887     1.48916688117887    10.00000000000000
 12     0.00000000000000     0.00000000000000    10.00000000000000
  8     1.48916688117887     4.46750064353661    10.00000000000000
 12     0.00000000000000     2.97833376235774    10.00000000000000
  8     1.48916688117887     7.44583440589435    10.00000000000000
 12     0.00000000000000     5.95666752471548    10.00000000000000
  8     1.48916688117887    10.42416816825208    10.00000000000000
 12     0.00000000000000     8.93500128707321    10.00000000000000
  8     1.48916688117887    13.40250193060982    10.00000000000000
 12     0.00000000000000    11.91333504943095    10.00000000000000
  8     4.46750064353661     1.48916688117887    10.00000000000000
 12     2.97833376235774     0.00000000000000    10.00000000000000
  8     4.46750064353661     4.46750064353661    10.00000000000000
 12     2.97833376235774     2.97833376235774    10.00000000000000
  8     4.46750064353661     7.44583440589435    10.00000000000000
 12     2.97833376235774     5.95666752471548    10.00000000000000
  8     4.46750064353661    10.42416816825208    10.00000000000000
 12     2.97833376235774     8.93500128707321    10.00000000000000
  8     4.46750064353661    13.40250193060982    10.00000000000000
 12     2.97833376235774    11.91333504943095    10.00000000000000
  8     7.44583440589435     1.48916688117887    10.00000000000000
 12     5.95666752471548     0.00000000000000    10.00000000000000
  8     7.44583440589435     4.46750064353661    10.00000000000000
 12     5.95666752471548     2.97833376235774    10.00000000000000
  8     7.44583440589435     7.44583440589435    10.00000000000000
 12     5.95666752471548     5.95666752471548    10.00000000000000
  8     7.44583440589435    10.42416816825208    10.00000000000000
 12     5.95666752471548     8.93500128707321    10.00000000000000
  8     7.44583440589435    13.40250193060982    10.00000000000000
 12     5.95666752471548    11.91333504943095    10.00000000000000
  8    10.42416816825208     1.48916688117887    10.00000000000000
 12     8.93500128707321     0.00000000000000    10.00000000000000
  8    10.42416816825208     4.46750064353661    10.00000000000000
 12     8.93500128707321     2.97833376235774    10.00000000000000
  8    10.42416816825208     7.44583440589435    10.00000000000000
 12     8.93500128707321     5.95666752471548    10.00000000000000
  8    10.42416816825208    10.42416816825208    10.00000000000000
 12     8.93500128707321     8.93500128707321    10.00000000000000
  8    10.42416816825208    13.40250193060982    10.00000000000000
 12     8.93500128707321    11.91333504943095    10.00000000000000
  8    13.40250193060982     1.48916688117887    10.00000000000000
 12    11.91333504943095     0.00000000000000    10.00000000000000
  8    13.40250193060982     4.46750064353661    10.00000000000000
 12    11.91333504943095     2.97833376235774    10.00000000000000
  8    13.40250193060982     7.44583440589435    10.00000000000000
 12    11.91333504943095     5.95666752471548    10.00000000000000
  8    13.40250193060982    10.42416816825208    10.00000000000000
 12    11.91333504943095     8.93500128707321    10.00000000000000
  8    13.40250193060982    13.40250193060982    10.00000000000000
 12    11.91333504943095    11.91333504943095    10.00000000000000
 27     0.46205360371623     1.49570603234975    11.50364636526752
 27     1.39576613123065     4.07225362577104    11.70433453040986
 26     1.36653988053376     8.17344734544196    11.40183900272518
 26     0.91416124743749    10.47352444449137    11.61956313615491
 26     1.74899442430686    13.22310692181760    11.73008470104251
 27     4.75191960961509     1.41685848285083    11.44998502838480
 26     4.38801975630705     4.45390005693481    11.71113677888070
 27     4.35400859635583     7.31451061804947    11.75030176022543
 26     4.39835751255794     9.61838797354006    11.50730579423353
 26     4.62510372698111    14.31377980866957    11.64545701534900
 27     7.51161975531258     1.64778699997975    11.55697576047344
 26     7.68554096385069     4.83290071456392    11.65321827507903
 27     7.62674387592148     6.87790661355049    11.37023632757534
 26     7.82503461739611    10.10117173198845    11.62898384204308
 26     7.39103363853992    13.29910906251694    11.64509262054103
 26     9.75433542016363     1.12239166628308    11.53289306861215
 27    10.77428698888607     4.50758616903396    11.92603363720824
 26    10.65679934248986     7.73004230636510    11.65905282484824
 26    10.77322993786277    10.12436855136252    11.50012493805800
 26    10.83071578133674    14.10310767278913    11.56565564694861
 26    12.95387070747212     1.79271938516120    11.45879942301327
 26    13.64319157859320     4.33151096389730    11.97081720125673
 26    13.42829595205785     7.63044230882939    11.54799285066114
 26    13.40393230013198    10.41078673520020    11.65888798027134
 26    12.91233128836934    12.91749303939204    11.82047764329049
