SLAB
PRIMVEC
 14.89166881178869 0.00000000000000 0.00000000000000
 0.00000000000000 14.89166881178869 0.00000000000000
 0.00000000000000 0.00000000000000 41.48916688117887
PRIMCOORD
 75 1
  8     1.48916688117887     1.48916688117887    10.00000000000000
 12     0.00000000000000     0.00000000000000    10.00000000000000
  8     1.48916688117887     4.46750064353661    10.00000000000000
 12     0.00000000000000     2.97833376235774    10.00000000000000
  8     1.48916688117887     7.44583440589435    10.00000000000000
 12     0.00000000000000     5.95666752471548    10.00000000000000
  8     1.48916688117887    10.42416816825208    10.00000000000000
 12     0.00000000000000     8.93500128707321    10.00000000000000
  8     1.48916688117887    13.40250193060982    10.00000000000000
 12     0.00000000000000    11.91333504943095    10.00000000000000
  8     4.46750064353661     1.48916688117887    10.00000000000000
 12     2.97833376235774     0.00000000000000    10.00000000000000
  8     4.46750064353661     4.46750064353661    10.00000000000000
 12     2.97833376235774     2.97833376235774    10.00000000000000
  8     4.46750064353661     7.44583440589435    10.00000000000000
 12     2.97833376235774     5.95666752471548    10.00000000000000
  8     4.46750064353661    10.42416816825208    10.00000000000000
 12     2.97833376235774     8.93500128707321    10.00000000000000
  8     4.46750064353661    13.40250193060982    10.00000000000000
 12     2.97833376235774    11.91333504943095    10.00000000000000
  8     7.44583440589435     1.48916688117887    10.00000000000000
 12     5.95666752471548     0.00000000000000    10.00000000000000
  8     7.44583440589435     4.46750064353661    10.00000000000000
 12     5.95666752471548     2.97833376235774    10.00000000000000
  8     7.44583440589435     7.44583440589435    10.00000000000000
 12     5.95666752471548     5.95666752471548    10.00000000000000
  8     7.44583440589435    10.42416816825208    10.00000000000000
 12     5.95666752471548     8.93500128707321    10.00000000000000
  8     7.44583440589435    13.40250193060982    10.00000000000000
 12     5.95666752471548    11.91333504943095    10.00000000000000
  8    10.42416816825208     1.48916688117887    10.00000000000000
 12     8.93500128707321     0.00000000000000    10.00000000000000
  8    10.42416816825208     4.46750064353661    10.00000000000000
 12     8.93500128707321     2.97833376235774    10.00000000000000
  8    10.42416816825208     7.44583440589435    10.00000000000000
 12     8.93500128707321     5.95666752471548    10.00000000000000
  8    10.42416816825208    10.42416816825208    10.00000000000000
 12     8.93500128707321     8.93500128707321    10.00000000000000
  8    10.42416816825208    13.40250193060982    10.00000000000000
 12     8.93500128707321    11.91333504943095    10.00000000000000
  8    13.40250193060982     1.48916688117887    10.00000000000000
 12    11.91333504943095     0.00000000000000    10.00000000000000
  8    13.40250193060982     4.46750064353661    10.00000000000000
 12    11.91333504943095     2.97833376235774    10.00000000000000
  8    13.40250193060982     7.44583440589435    10.00000000000000
 12    11.91333504943095     5.95666752471548    10.00000000000000
  8    13.40250193060982    10.42416816825208    10.00000000000000
 12    11.91333504943095     8.93500128707321    10.00000000000000
  8    13.40250193060982    13.40250193060982    10.00000000000000
 12    11.91333504943095    11.91333504943095    10.00000000000000
 27     1.33849670524113     1.09905659230137    11.81001797225534
 27     1.25574601485308     4.20130191950379    11.51238924395933
 26     1.48020979420976     7.45414572909576    11.52620745543785
 26     0.43960925780066    10.41749328687240    11.40667996308450
 26     2.23237981701177    13.08596763597395    11.58852880133618
 27     3.73799270449587     1.48219683328292    11.55481644505508
 26     4.37885478563597     4.40415118037495    11.82951881831583
 27     4.88088069103676     7.73498598389345    11.87326711168141
 26     4.64412270911053    10.21190739452993    11.94466458160236
 26     5.59902373852950    13.42951992047270    11.43615346070648
 27     7.22305081685681     1.20051640316714    11.80212947200026
 26     7.49397570821391     4.10202080713553    11.58772949987098
 27     6.92524508042256     7.14888061515362    11.39885857065251
 26     6.91502806904192    10.46867279776800    11.57660230586506
 26     7.69129900569632    13.18161121009115    11.89163697639696
 26    10.35674084912214     0.57855102935016    11.42118356072324
 27    10.50472169293278     4.37693567202208    11.97234166547444
 26    10.43155180589334     7.42297679869788    11.67394555783171
 26    10.27279906001119    10.24158855312307    11.49842580448751
 26    11.10180837996677    13.42349644032176    11.79444900704628
 26    13.37326083552590     1.97289790995497    11.85440935636802
 26    13.30337634636597     4.86044782631853    11.68024650026558
 26    13.39742304023952     7.45428572456265    11.96662081324730
 26    13.00515303105596    10.45161342830995    11.88668698995773
 26    13.97545172005261    12.80615813419787    11.66140218078501
