SLAB
PRIMVEC
 14.89166881178869 0.00000000000000 0.00000000000000
 0.00000000000000 14.89166881178869 0.00000000000000
 0.00000000000000 0.00000000000000 41.48916688117887
PRIMCOORD
 75 1
  8     1.48916688117887     1.48916688117887    10.00000000000000
 12     0.00000000000000     0.00000000000000    10.00000000000000
  8     1.48916688117887     4.46750064353661    10.00000000000000
 12     0.00000000000000     2.97833376235774    10.00000000000000
  8     1.48916688117887     7.44583440589435    10.00000000000000
 12     0.00000000000000     5.95666752471548    10.00000000000000
  8     1.48916688117887    10.42416816825208    10.00000000000000
 12     0.00000000000000     8.93500128707321    10.00000000000000
  8     1.48916688117887    13.40250193060982    10.00000000000000
 12     0.00000000000000    11.91333504943095    10.00000000000000
  8     4.46750064353661     1.48916688117887    10.00000000000000
 12     2.97833376235774     0.00000000000000    10.00000000000000
  8     4.46750064353661     4.46750064353661    10.00000000000000
 12     2.97833376235774     2.97833376235774    10.00000000000000
  8     4.46750064353661     7.44583440589435    10.00000000000000
 12     2.97833376235774     5.95666752471548    10.00000000000000
  8     4.46750064353661    10.42416816825208    10.00000000000000
 12     2.97833376235774     8.93500128707321    10.00000000000000
  8     4.46750064353661    13.40250193060982    10.00000000000000
 12     2.97833376235774    11.91333504943095    10.00000000000000
  8     7.44583440589435     1.48916688117887    10.00000000000000
 12     5.95666752471548     0.00000000000000    10.00000000000000
  8     7.44583440589435     4.46750064353661    10.00000000000000
 12     5.95666752471548     2.97833376235774    10.00000000000000
  8     7.44583440589435     7.44583440589435    10.00000000000000
 12     5.95666752471548     5.95666752471548    10.00000000000000
  8     7.44583440589435    10.42416816825208    10.00000000000000
 12     5.95666752471548     8.93500128707321    10.00000000000000
  8     7.44583440589435    13.40250193060982    10.00000000000000
 12     5.95666752471548    11.91333504943095    10.00000000000000
  8    10.42416816825208     1.48916688117887    10.00000000000000
 12     8.93500128707321     0.00000000000000    10.00000000000000
  8    10.42416816825208     4.46750064353661    10.00000000000000
 12     8.93500128707321     2.97833376235774    10.00000000000000
  8    10.42416816825208     7.44583440589435    10.00000000000000
 12     8.93500128707321     5.95666752471548    10.00000000000000
  8    10.42416816825208    10.42416816825208    10.00000000000000
 12     8.93500128707321     8.93500128707321    10.00000000000000
  8    10.42416816825208    13.40250193060982    10.00000000000000
 12     8.93500128707321    11.91333504943095    10.00000000000000
  8    13.40250193060982     1.48916688117887    10.00000000000000
 12    11.91333504943095     0.00000000000000    10.00000000000000
  8    13.40250193060982     4.46750064353661    10.00000000000000
 12    11.91333504943095     2.97833376235774    10.00000000000000
  8    13.40250193060982     7.44583440589435    10.00000000000000
 12    11.91333504943095     5.95666752471548    10.00000000000000
  8    13.40250193060982    10.42416816825208    10.00000000000000
 12    11.91333504943095     8.93500128707321    10.00000000000000
  8    13.40250193060982    13.40250193060982    10.00000000000000
 12    11.91333504943095    11.91333504943095    10.00000000000000
 27     1.60028459303742     1.43448115626551    11.85782278869443
 27     1.85333781315683     4.25452750058369    13.41826400891620
 26     1.28475530867612     7.08793120206330    11.43788428998503
 26     1.31014659274141    11.13236701764764    11.62593211477265
 26     1.44788841077882    13.26234740132972    11.95582914778994
 27     4.58741068268225     2.32847107145350    11.32493131722795
 26     4.11433039911444     5.02106225916134    12.28131585732986
 27     4.68940102943104     7.94378031285044    11.61414064839497
 26     4.12777144908392    12.22125385204470    11.99960880300451
 26     4.01417247432614    13.90280655276510    13.58267413653150
 27     6.11774156228763     0.55579300581916    13.13374954758554
 26     7.57329535085921     4.96892890794881    11.70673396155391
 27     7.41198454843632     7.48852013092097    11.56107492448550
 26     6.06611157314196    11.04258605909745    13.27603920975117
 26     7.44024184041426    12.66796693522671    11.29310135431436
 26    10.24674309532917     0.90936276410874    12.44732946855711
 27    10.53600653067179     4.16982061384280    12.88992739651324
 26    10.08696929343696     6.24919366302124    12.53443839773630
 26    10.72152117143975    10.75485519335629    11.91694998618712
 26    10.36744852707293    13.80027147840725    11.52419346458874
 26    12.13745049303606     1.82784598585330    11.84284875834128
 26    13.65553430883394     4.15013469800759    11.55097028228181
 26    14.42549443161657     8.14452332409353    13.46737400176091
 26    13.46365431214709    10.43706263549489    11.77370269125517
 26    13.64794070077646    13.27860139731372    11.71147126446485
