SLAB
PRIMVEC
 5.68600000000000 0.00000000000000 0.00000000000000
 0.00000000000000 5.68600000000000 0.00000000000000
 0.00000000000000 0.00000000000000 41.42150000000000
PRIMCOORD
 16 1
 27     0.00000000000000     0.00000000000000    12.30000000000000
 27     0.00000000000000     2.84300000000000    12.30000000000000
 27     2.84300000000000     0.00000000000000    12.30000000000000
 27     2.84300000000000     2.84300000000000    12.30000000000000
  8     1.42150000000000     1.42150000000000    10.00000000000000
 12     0.00000000000000     0.00000000000000    10.00000000000000
  8     1.42150000000000     4.26450000000000    10.00000000000000
 12     0.00000000000000     2.84300000000000    10.00000000000000
  8     4.26450000000000     1.42150000000000    10.00000000000000
 12     2.84300000000000     0.00000000000000    10.00000000000000
  8     4.26450000000000     4.26450000000000    10.00000000000000
 12     2.84300000000000     2.84300000000000    10.00000000000000
 26     1.39997495755293     1.47462871309114    13.19686168016858
 26     1.43271522535113     4.22604558772734    13.23729342460179
 26     4.25645692996981     1.16032301168089    13.18681095222829
 26     4.18976000299817     4.07205901285009    13.04890460528612
