SLAB
PRIMVEC
 5.68600000000000 0.00000000000000 0.00000000000000
 0.00000000000000 5.68600000000000 0.00000000000000
 0.00000000000000 0.00000000000000 41.42150000000000
PRIMCOORD
 16 1
 27     0.00000000000000     0.00000000000000    12.30000000000000
 27     0.00000000000000     2.84300000000000    12.30000000000000
 27     2.84300000000000     0.00000000000000    12.30000000000000
 27     2.84300000000000     2.84300000000000    12.30000000000000
  8     1.42150000000000     1.42150000000000    10.00000000000000
 12     0.00000000000000     0.00000000000000    10.00000000000000
  8     1.42150000000000     4.26450000000000    10.00000000000000
 12     0.00000000000000     2.84300000000000    10.00000000000000
  8     4.26450000000000     1.42150000000000    10.00000000000000
 12     2.84300000000000     0.00000000000000    10.00000000000000
  8     4.26450000000000     4.26450000000000    10.00000000000000
 12     2.84300000000000     2.84300000000000    10.00000000000000
 26     1.47720149376459     1.42665908047280    13.52410317722230
 26     1.60439916786714     4.40672915924192    13.25843846817390
 26     4.40463177793232     1.42005679940196    13.15021267787067
 26     4.18976000299817     4.07205901285009    13.04890460528612
