SLAB
PRIMVEC
 14.89166881178869 0.00000000000000 0.00000000000000
 0.00000000000000 14.89166881178869 0.00000000000000
 0.00000000000000 0.00000000000000 43.78916688117886
PRIMCOORD
 75 1
 27     1.48916688117887     1.48916688117887    10.00000000000000
 27     1.48916688117887     4.46750064353661    10.00000000000000
 26     1.48916688117887     7.44583440589435    10.00000000000000
 26     1.48916688117887    10.42416816825208    10.00000000000000
 26     1.48916688117887    13.40250193060982    10.00000000000000
 27     4.46750064353661     1.48916688117887    10.00000000000000
 26     4.46750064353661     4.46750064353661    10.00000000000000
 27     4.46750064353661     7.44583440589435    10.00000000000000
 26     4.46750064353661    10.42416816825208    10.00000000000000
 26     4.46750064353661    13.40250193060982    10.00000000000000
 27     7.44583440589435     1.48916688117887    10.00000000000000
 26     7.44583440589435     4.46750064353661    10.00000000000000
 27     7.44583440589435     7.44583440589435    10.00000000000000
 26     7.44583440589435    10.42416816825208    10.00000000000000
 26     7.44583440589435    13.40250193060982    10.00000000000000
 26    10.42416816825208     1.48916688117887    10.00000000000000
 27    10.42416816825208     4.46750064353661    10.00000000000000
 26    10.42416816825208     7.44583440589435    10.00000000000000
 26    10.42416816825208    10.42416816825208    10.00000000000000
 26    10.42416816825208    13.40250193060982    10.00000000000000
 26    13.40250193060982     1.48916688117887    10.00000000000000
 26    13.40250193060982     4.46750064353661    10.00000000000000
 26    13.40250193060982     7.44583440589435    10.00000000000000
 26    13.40250193060982    10.42416816825208    10.00000000000000
 26    13.40250193060982    13.40250193060982    10.00000000000000
  8     0.97631751349052     1.33731381438641    11.74608242032357
 12     0.04506835602220     0.04728808779070    11.70483363782106
  8     1.40881051555818     4.69276641780088    11.54227112326257
 12     0.82300686602681     2.96881749833892    11.60157891835274
  8     1.49936637170647     7.42621931145079    11.97076959249823
 12     0.27990638851468     5.89144822849165    11.66006352005253
  8     1.97567019869568    10.66217706532574    11.77900630591706
 12     0.29267610438552     8.74864628785837    11.06522020982381
  8     2.75302372482181    14.12864111533409    10.76256711983439
 12     0.31542563576276    11.71189778440816    11.58436503483342
  8     4.56135649042068     1.22318429333051    11.88371547882909
 12     3.20877960637121     0.25413397155900    11.90344530448982
  8     4.74956494399829     3.93439788016366    11.53661211029858
 12     3.05353826884235     3.24325026150887    11.74348335136491
  8     4.50611411121390     7.23904159850827    11.93032089351512
 12     2.88518562969380     5.91950373023181    11.52022588195570
  8     3.27860255529271    10.62592699473589    10.94722752275756
 12     3.06269666033790     8.66098719810878    11.92452016446943
  8     3.85794382205153    13.17629161348039    11.47207340631552
 12     2.40124998013684    12.20367807157406    11.43894115833456
  8     7.98104389272481     2.03394348821767    11.35828156702390
 12     6.36562175345702     0.88656154749343    11.58516761895339
  8     7.21630154473296     4.40612285800429    11.88529023756076
 12     5.80570646932313     2.96493810575330    10.79086296673438
  8     7.48900421640360     7.14586554772519    11.89663582640607
 12     5.99873180585336     6.20798654923501    11.45214209070230
  8     7.33445438263195    10.09643519623843    11.84652593291304
 12     5.56114174455267     9.40796649997126    11.58819366388407
  8     6.11198330270188    13.11627785110491    10.69429262549248
 12     6.54938969583273    11.72033198551003    11.32351600953620
  8    10.54664359000189     2.17236800667337    11.72126850095656
 12     8.89042820970863     0.66081472175617    11.19114483685560
  8    11.78832130416290     4.52774630024887    10.56980496196030
 12     9.22265789812418     3.10557605799781    10.86144862003873
  8     9.58782399185895     7.06290147686255    11.25522052450742
 12     9.05399458562393     5.17889994423777    11.50985667319177
  8    10.59485371629523    10.63555971488195    11.72810182873628
 12     8.83548961242975     8.90788886149057    11.47691476572385
  8    10.41719789169532    13.35684149347835    11.95792912740628
 12     8.90229640254830    12.05785128958423    11.45235975873604
  8    13.28551577678807     1.03772286330411    11.61357608526205
 12    11.89980593303916     0.06459160722746    10.76767598575852
  8    13.40797776593294     5.23429790146087    11.78481202297805
 12    11.72454194753344     3.18312568268061    11.66257050819156
  8    13.24499093214102     6.97215077425357    11.89610402169277
 12    11.50586283825396     6.41194757442245    11.67955257092143
  8    14.15375896021652    10.32605780795754    11.78102278052352
 12    12.31753593006147     8.78228804281157    11.62650484367120
  8    13.43102525126467    13.92759386946139    11.58170025207751
 12    12.69425551197296    12.20954208638206    11.70544560884954
