SLAB
PRIMVEC
 14.89166881178869 0.00000000000000 0.00000000000000
 0.00000000000000 14.89166881178869 0.00000000000000
 0.00000000000000 0.00000000000000 43.78916688117886
PRIMCOORD
 75 1
 27     1.48916688117887     1.48916688117887    10.00000000000000
 27     1.48916688117887     4.46750064353661    10.00000000000000
 26     1.48916688117887     7.44583440589435    10.00000000000000
 26     1.48916688117887    10.42416816825208    10.00000000000000
 26     1.48916688117887    13.40250193060982    10.00000000000000
 27     4.46750064353661     1.48916688117887    10.00000000000000
 26     4.46750064353661     4.46750064353661    10.00000000000000
 27     4.46750064353661     7.44583440589435    10.00000000000000
 26     4.46750064353661    10.42416816825208    10.00000000000000
 26     4.46750064353661    13.40250193060982    10.00000000000000
 27     7.44583440589435     1.48916688117887    10.00000000000000
 26     7.44583440589435     4.46750064353661    10.00000000000000
 27     7.44583440589435     7.44583440589435    10.00000000000000
 26     7.44583440589435    10.42416816825208    10.00000000000000
 26     7.44583440589435    13.40250193060982    10.00000000000000
 26    10.42416816825208     1.48916688117887    10.00000000000000
 27    10.42416816825208     4.46750064353661    10.00000000000000
 26    10.42416816825208     7.44583440589435    10.00000000000000
 26    10.42416816825208    10.42416816825208    10.00000000000000
 26    10.42416816825208    13.40250193060982    10.00000000000000
 26    13.40250193060982     1.48916688117887    10.00000000000000
 26    13.40250193060982     4.46750064353661    10.00000000000000
 26    13.40250193060982     7.44583440589435    10.00000000000000
 26    13.40250193060982    10.42416816825208    10.00000000000000
 26    13.40250193060982    13.40250193060982    10.00000000000000
  8     1.34515818835782     1.25234391246971    11.56686777304636
 12     0.20859661841879     0.05922224309710    10.86395751465017
  8     0.95099056652838     4.66389700569796    11.81510946568406
 12     0.23263290115836     3.10682887620129    10.93951015398579
  8     1.48916688117887     7.44583440589435    10.50000000000000
 12     0.20456953810100     6.09461576181608    11.82811544058086
  8     1.49289730355502    11.25333333280749    11.72068583099309
 12     0.31884639124453     8.23068813396443    11.75524094984609
  8     1.40881983019637    13.12539548031858    11.81847385006552
 12     0.04786671920355    12.17361102900353    10.96134059827281
  8     4.47602741130516     1.45924253828130    11.47353284212176
 12     3.08072241595184     0.30656988363569    10.93401420271780
  8     4.55183028139739     4.25638059190924    11.90156837799629
 12     3.10498540437136     2.97260293123300    11.68289373822180
  8     4.08281057272688     6.63512420528288    11.25968151514727
 12     2.39368992348212     6.01981706580291    11.18100868931362
  8     5.77640351990939    10.49947116481417    11.12399007193974
 12     2.68360062707055     8.89554997811986    10.95903672569948
  8     4.42092054353307    13.92879848200191    11.76229032940812
 12     2.87539353283134    11.70462410469194    10.87677809663020
  8     7.28341131191418     1.90980179829736    11.85124742109522
 12     6.57766236476528     0.14631109366676    11.48103344908994
  8     7.85097893777335     4.69233004238152    11.49724048906088
 12     5.59296017067714     2.64424088809070    11.55479952657862
  8     8.13628272534280     7.93474859924431    11.66660053955035
 12     6.02155930104513     5.72363255873441    11.84544390424335
  8     7.37568984596568    10.56971983579326    11.50516622050852
 12     6.09884364698145     9.03856847636691    11.59128411292034
  8     7.00323577585356    12.03769832037454    10.83283740344759
 12     5.61878390971793    11.83464461375424    11.94560138532361
  8    10.19912148269804     1.21954047250290    11.79615753313878
 12     8.87629892951305     0.10644081995465    11.31779536820276
  8    10.41212403039051     4.53023528880769    11.48964771384145
 12     9.04186621120617     3.25309542621576    11.74337638163658
  8    10.10697313957629     7.34663098295128    11.88476935618435
 12     8.75484079033583     6.11235010333605    11.40821156352126
  8    10.77728401812394    10.17430289183295    11.49261802575587
 12     8.93500128707321     8.93500128707321    10.50000000000000
  8     9.88339900065735    13.24004936576936    11.44620063271283
 12     9.07865647055471    11.13606788349138    11.43605832979825
  8    12.34504193756742     1.53122308089423    11.31038719193301
 12    11.76091134552576     0.15466824318788    11.88832746626955
  8    13.03888440586236     4.31865336115592    11.73128875118383
 12    11.08992488471847     2.65489848032381    11.58882693030044
  8    13.41925384762219     7.42745524571952    11.54371768825477
 12    11.70352250178594     5.94977492777458    11.88351398749631
  8    12.92386725634882    11.00368420012691    11.31446821763898
 12    11.95500469793883     8.94273399595478    11.81496259785635
  8    13.43170104173598    13.41550212430034    11.72975762238344
 12    11.33306072025746    12.31003131461707    11.62190458640288
