SLAB
PRIMVEC
 5.68600000000000 0.00000000000000 0.00000000000000
 0.00000000000000 5.68600000000000 0.00000000000000
 0.00000000000000 0.00000000000000 41.42150000000000
PRIMCOORD
 16 1
 27     0.00000000000000     0.00000000000000    12.30000000000000
 26     1.42150000000000     1.42150000000000    13.72150000000000
 27     0.00000000000000     2.84300000000000    12.30000000000000
 26     1.42150000000000     4.26450000000000    13.72150000000000
 27     2.84300000000000     0.00000000000000    12.30000000000000
 26     4.26450000000000     1.42150000000000    13.72150000000000
 27     2.84300000000000     2.84300000000000    12.30000000000000
 26     4.26450000000000     4.26450000000000    13.72150000000000
  8     1.42150000000000     1.42150000000000    10.00000000000000
 12     0.00000000000000     0.00000000000000    10.00000000000000
  8     1.42150000000000     4.26450000000000    10.00000000000000
 12     0.00000000000000     2.84300000000000    10.00000000000000
  8     4.26450000000000     1.42150000000000    10.00000000000000
 12     2.84300000000000     0.00000000000000    10.00000000000000
  8     4.26450000000000     4.26450000000000    10.00000000000000
 12     2.84300000000000     2.84300000000000    10.00000000000000
